*Heading
** Job name: RRX_GNA_3 Model name: Model-1
*Preprint, echo=NO, model=NO, history=NO, contact=NO
**
** PARTS
**
*Part, name=Part-1
*End Part
**  
**
** ASSEMBLY
**
*Assembly, name=Assembly
**  
*Instance, name=Part-1-1, part=Part-1
*Node
      1,        1000.,         144.,           0.
      2,       -1000.,         144.,           0.
      3,       -1000.,         845.,           0.
      4,        1000.,         845.,           0.
      5,       -1000.,        1000.,           0.
      6,        1000.,        1000.,           0.
      7,        1000.,           0.,           0.
      8,       -1000.,           0.,           0.
      9,   999.506531,         144.,    31.410759
     10,   998.026733,         144.,   62.7905197
     11,   995.561951,         144.,   94.1083145
     12,   992.114685,         144.,   125.333237
     13,   987.688354,         144.,   156.434464
     14,   982.287231,         144.,   187.381317
     15,   975.916748,         144.,   218.143234
     16,   968.583191,         144.,    248.68988
     17,   960.293701,         144.,   278.991119
     18,   951.056519,         144.,   309.016998
     19,   940.880798,         144.,   338.737915
     20,   929.776489,         144.,   368.124542
     21,   917.754639,         144.,   397.147888
     22,   904.827026,         144.,   425.779297
     23,   891.006531,         144.,   453.990509
     24,   876.306702,         144.,   481.753662
     25,   860.742004,         144.,   509.041412
     26,   844.327942,         144.,   535.826782
     27,   827.080566,         144.,   562.083374
     28,   809.016968,         144.,   587.785278
     29,   790.155029,         144.,   612.907043
     30,   770.513245,         144.,   637.424011
     31,   750.111084,         144.,    661.31189
     32,   728.968628,         144.,   684.547119
     33,   707.106812,         144.,   707.106812
     34,   684.547119,         144.,   728.968628
     35,    661.31189,         144.,   750.111084
     36,   637.424011,         144.,   770.513245
     37,   612.907043,         144.,   790.155029
     38,   587.785278,         144.,   809.016968
     39,   562.083374,         144.,   827.080566
     40,   535.826782,         144.,   844.327942
     41,   509.041412,         144.,   860.742004
     42,   481.753662,         144.,   876.306702
     43,   453.990509,         144.,   891.006531
     44,   425.779297,         144.,   904.827026
     45,   397.147888,         144.,   917.754639
     46,   368.124542,         144.,   929.776489
     47,   338.737915,         144.,   940.880798
     48,   309.016998,         144.,   951.056519
     49,   278.991119,         144.,   960.293701
     50,    248.68988,         144.,   968.583191
     51,   218.143234,         144.,   975.916748
     52,   187.381317,         144.,   982.287231
     53,   156.434464,         144.,   987.688354
     54,   125.333237,         144.,   992.114685
     55,   94.1083145,         144.,   995.561951
     56,   62.7905197,         144.,   998.026733
     57,    31.410759,         144.,   999.506531
     58,           0.,         144.,        1000.
     59,   -31.410759,         144.,   999.506531
     60,  -62.7905197,         144.,   998.026733
     61,  -94.1083145,         144.,   995.561951
     62,  -125.333237,         144.,   992.114685
     63,  -156.434464,         144.,   987.688354
     64,  -187.381317,         144.,   982.287231
     65,  -218.143234,         144.,   975.916748
     66,   -248.68988,         144.,   968.583191
     67,  -278.991119,         144.,   960.293701
     68,  -309.016998,         144.,   951.056519
     69,  -338.737915,         144.,   940.880798
     70,  -368.124542,         144.,   929.776489
     71,  -397.147888,         144.,   917.754639
     72,  -425.779297,         144.,   904.827026
     73,  -453.990509,         144.,   891.006531
     74,  -481.753662,         144.,   876.306702
     75,  -509.041412,         144.,   860.742004
     76,  -535.826782,         144.,   844.327942
     77,  -562.083374,         144.,   827.080566
     78,  -587.785278,         144.,   809.016968
     79,  -612.907043,         144.,   790.155029
     80,  -637.424011,         144.,   770.513245
     81,   -661.31189,         144.,   750.111084
     82,  -684.547119,         144.,   728.968628
     83,  -707.106812,         144.,   707.106812
     84,  -728.968628,         144.,   684.547119
     85,  -750.111084,         144.,    661.31189
     86,  -770.513245,         144.,   637.424011
     87,  -790.155029,         144.,   612.907043
     88,  -809.016968,         144.,   587.785278
     89,  -827.080566,         144.,   562.083374
     90,  -844.327942,         144.,   535.826782
     91,  -860.742004,         144.,   509.041412
     92,  -876.306702,         144.,   481.753662
     93,  -891.006531,         144.,   453.990509
     94,  -904.827026,         144.,   425.779297
     95,  -917.754639,         144.,   397.147888
     96,  -929.776489,         144.,   368.124542
     97,  -940.880798,         144.,   338.737915
     98,  -951.056519,         144.,   309.016998
     99,  -960.293701,         144.,   278.991119
    100,  -968.583191,         144.,    248.68988
    101,  -975.916748,         144.,   218.143234
    102,  -982.287231,         144.,   187.381317
    103,  -987.688354,         144.,   156.434464
    104,  -992.114685,         144.,   125.333237
    105,  -995.561951,         144.,   94.1083145
    106,  -998.026733,         144.,   62.7905197
    107,  -999.506531,         144.,    31.410759
    108,       -1000.,   179.050003,           0.
    109,       -1000.,   214.100006,           0.
    110,       -1000.,   249.149994,           0.
    111,       -1000.,   284.200012,           0.
    112,       -1000.,       319.25,           0.
    113,       -1000.,   354.299988,           0.
    114,       -1000.,   389.350006,           0.
    115,       -1000.,   424.399994,           0.
    116,       -1000.,   459.450012,           0.
    117,       -1000.,        494.5,           0.
    118,       -1000.,   529.549988,           0.
    119,       -1000.,   564.599976,           0.
    120,       -1000.,   599.650024,           0.
    121,       -1000.,   634.700012,           0.
    122,       -1000.,       669.75,           0.
    123,       -1000.,   704.799988,           0.
    124,       -1000.,   739.849976,           0.
    125,       -1000.,   774.900024,           0.
    126,       -1000.,   809.950012,           0.
    127,  -999.506531,         845.,    31.410759
    128,  -998.026733,         845.,   62.7905197
    129,  -995.561951,         845.,   94.1083145
    130,  -992.114685,         845.,   125.333237
    131,  -987.688354,         845.,   156.434464
    132,  -982.287231,         845.,   187.381317
    133,  -975.916748,         845.,   218.143234
    134,  -968.583191,         845.,    248.68988
    135,  -960.293701,         845.,   278.991119
    136,  -951.056519,         845.,   309.016998
    137,  -940.880798,         845.,   338.737915
    138,  -929.776489,         845.,   368.124542
    139,  -917.754639,         845.,   397.147888
    140,  -904.827026,         845.,   425.779297
    141,  -891.006531,         845.,   453.990509
    142,  -876.306702,         845.,   481.753662
    143,  -860.742004,         845.,   509.041412
    144,  -844.327942,         845.,   535.826782
    145,  -827.080566,         845.,   562.083374
    146,  -809.016968,         845.,   587.785278
    147,  -790.155029,         845.,   612.907043
    148,  -770.513245,         845.,   637.424011
    149,  -750.111084,         845.,    661.31189
    150,  -728.968628,         845.,   684.547119
    151,  -707.106812,         845.,   707.106812
    152,  -684.547119,         845.,   728.968628
    153,   -661.31189,         845.,   750.111084
    154,  -637.424011,         845.,   770.513245
    155,  -612.907043,         845.,   790.155029
    156,  -587.785278,         845.,   809.016968
    157,  -562.083374,         845.,   827.080566
    158,  -535.826782,         845.,   844.327942
    159,  -509.041412,         845.,   860.742004
    160,  -481.753662,         845.,   876.306702
    161,  -453.990509,         845.,   891.006531
    162,  -425.779297,         845.,   904.827026
    163,  -397.147888,         845.,   917.754639
    164,  -368.124542,         845.,   929.776489
    165,  -338.737915,         845.,   940.880798
    166,  -309.016998,         845.,   951.056519
    167,  -278.991119,         845.,   960.293701
    168,   -248.68988,         845.,   968.583191
    169,  -218.143234,         845.,   975.916748
    170,  -187.381317,         845.,   982.287231
    171,  -156.434464,         845.,   987.688354
    172,  -125.333237,         845.,   992.114685
    173,  -94.1083145,         845.,   995.561951
    174,  -62.7905197,         845.,   998.026733
    175,   -31.410759,         845.,   999.506531
    176,           0.,         845.,        1000.
    177,    31.410759,         845.,   999.506531
    178,   62.7905197,         845.,   998.026733
    179,   94.1083145,         845.,   995.561951
    180,   125.333237,         845.,   992.114685
    181,   156.434464,         845.,   987.688354
    182,   187.381317,         845.,   982.287231
    183,   218.143234,         845.,   975.916748
    184,    248.68988,         845.,   968.583191
    185,   278.991119,         845.,   960.293701
    186,   309.016998,         845.,   951.056519
    187,   338.737915,         845.,   940.880798
    188,   368.124542,         845.,   929.776489
    189,   397.147888,         845.,   917.754639
    190,   425.779297,         845.,   904.827026
    191,   453.990509,         845.,   891.006531
    192,   481.753662,         845.,   876.306702
    193,   509.041412,         845.,   860.742004
    194,   535.826782,         845.,   844.327942
    195,   562.083374,         845.,   827.080566
    196,   587.785278,         845.,   809.016968
    197,   612.907043,         845.,   790.155029
    198,   637.424011,         845.,   770.513245
    199,    661.31189,         845.,   750.111084
    200,   684.547119,         845.,   728.968628
    201,   707.106812,         845.,   707.106812
    202,   728.968628,         845.,   684.547119
    203,   750.111084,         845.,    661.31189
    204,   770.513245,         845.,   637.424011
    205,   790.155029,         845.,   612.907043
    206,   809.016968,         845.,   587.785278
    207,   827.080566,         845.,   562.083374
    208,   844.327942,         845.,   535.826782
    209,   860.742004,         845.,   509.041412
    210,   876.306702,         845.,   481.753662
    211,   891.006531,         845.,   453.990509
    212,   904.827026,         845.,   425.779297
    213,   917.754639,         845.,   397.147888
    214,   929.776489,         845.,   368.124542
    215,   940.880798,         845.,   338.737915
    216,   951.056519,         845.,   309.016998
    217,   960.293701,         845.,   278.991119
    218,   968.583191,         845.,    248.68988
    219,   975.916748,         845.,   218.143234
    220,   982.287231,         845.,   187.381317
    221,   987.688354,         845.,   156.434464
    222,   992.114685,         845.,   125.333237
    223,   995.561951,         845.,   94.1083145
    224,   998.026733,         845.,   62.7905197
    225,   999.506531,         845.,    31.410759
    226,        1000.,   809.950012,           0.
    227,        1000.,   774.900024,           0.
    228,        1000.,   739.849976,           0.
    229,        1000.,   704.799988,           0.
    230,        1000.,       669.75,           0.
    231,        1000.,   634.700012,           0.
    232,        1000.,   599.650024,           0.
    233,        1000.,   564.599976,           0.
    234,        1000.,   529.549988,           0.
    235,        1000.,        494.5,           0.
    236,        1000.,   459.450012,           0.
    237,        1000.,   424.399994,           0.
    238,        1000.,   389.350006,           0.
    239,        1000.,   354.299988,           0.
    240,        1000.,       319.25,           0.
    241,        1000.,   284.200012,           0.
    242,        1000.,   249.149994,           0.
    243,        1000.,   214.100006,           0.
    244,        1000.,   179.050003,           0.
    245,       -1000.,       852.75,           0.
    246,       -1000.,        860.5,           0.
    247,       -1000.,       868.25,           0.
    248,       -1000.,         876.,           0.
    249,       -1000.,       883.75,           0.
    250,       -1000.,        891.5,           0.
    251,       -1000.,       899.25,           0.
    252,       -1000.,         907.,           0.
    253,       -1000.,       914.75,           0.
    254,       -1000.,        922.5,           0.
    255,       -1000.,       930.25,           0.
    256,       -1000.,         938.,           0.
    257,       -1000.,       945.75,           0.
    258,       -1000.,        953.5,           0.
    259,       -1000.,       961.25,           0.
    260,       -1000.,         969.,           0.
    261,       -1000.,       976.75,           0.
    262,       -1000.,        984.5,           0.
    263,       -1000.,       992.25,           0.
    264,  -999.506531,        1000.,    31.410759
    265,  -998.026733,        1000.,   62.7905197
    266,  -995.561951,        1000.,   94.1083145
    267,  -992.114685,        1000.,   125.333237
    268,  -987.688354,        1000.,   156.434464
    269,  -982.287231,        1000.,   187.381317
    270,  -975.916748,        1000.,   218.143234
    271,  -968.583191,        1000.,    248.68988
    272,  -960.293701,        1000.,   278.991119
    273,  -951.056519,        1000.,   309.016998
    274,  -940.880798,        1000.,   338.737915
    275,  -929.776489,        1000.,   368.124542
    276,  -917.754639,        1000.,   397.147888
    277,  -904.827026,        1000.,   425.779297
    278,  -891.006531,        1000.,   453.990509
    279,  -876.306702,        1000.,   481.753662
    280,  -860.742004,        1000.,   509.041412
    281,  -844.327942,        1000.,   535.826782
    282,  -827.080566,        1000.,   562.083374
    283,  -809.016968,        1000.,   587.785278
    284,  -790.155029,        1000.,   612.907043
    285,  -770.513245,        1000.,   637.424011
    286,  -750.111084,        1000.,    661.31189
    287,  -728.968628,        1000.,   684.547119
    288,  -707.106812,        1000.,   707.106812
    289,  -684.547119,        1000.,   728.968628
    290,   -661.31189,        1000.,   750.111084
    291,  -637.424011,        1000.,   770.513245
    292,  -612.907043,        1000.,   790.155029
    293,  -587.785278,        1000.,   809.016968
    294,  -562.083374,        1000.,   827.080566
    295,  -535.826782,        1000.,   844.327942
    296,  -509.041412,        1000.,   860.742004
    297,  -481.753662,        1000.,   876.306702
    298,  -453.990509,        1000.,   891.006531
    299,  -425.779297,        1000.,   904.827026
    300,  -397.147888,        1000.,   917.754639
    301,  -368.124542,        1000.,   929.776489
    302,  -338.737915,        1000.,   940.880798
    303,  -309.016998,        1000.,   951.056519
    304,  -278.991119,        1000.,   960.293701
    305,   -248.68988,        1000.,   968.583191
    306,  -218.143234,        1000.,   975.916748
    307,  -187.381317,        1000.,   982.287231
    308,  -156.434464,        1000.,   987.688354
    309,  -125.333237,        1000.,   992.114685
    310,  -94.1083145,        1000.,   995.561951
    311,  -62.7905197,        1000.,   998.026733
    312,   -31.410759,        1000.,   999.506531
    313,           0.,        1000.,        1000.
    314,    31.410759,        1000.,   999.506531
    315,   62.7905197,        1000.,   998.026733
    316,   94.1083145,        1000.,   995.561951
    317,   125.333237,        1000.,   992.114685
    318,   156.434464,        1000.,   987.688354
    319,   187.381317,        1000.,   982.287231
    320,   218.143234,        1000.,   975.916748
    321,    248.68988,        1000.,   968.583191
    322,   278.991119,        1000.,   960.293701
    323,   309.016998,        1000.,   951.056519
    324,   338.737915,        1000.,   940.880798
    325,   368.124542,        1000.,   929.776489
    326,   397.147888,        1000.,   917.754639
    327,   425.779297,        1000.,   904.827026
    328,   453.990509,        1000.,   891.006531
    329,   481.753662,        1000.,   876.306702
    330,   509.041412,        1000.,   860.742004
    331,   535.826782,        1000.,   844.327942
    332,   562.083374,        1000.,   827.080566
    333,   587.785278,        1000.,   809.016968
    334,   612.907043,        1000.,   790.155029
    335,   637.424011,        1000.,   770.513245
    336,    661.31189,        1000.,   750.111084
    337,   684.547119,        1000.,   728.968628
    338,   707.106812,        1000.,   707.106812
    339,   728.968628,        1000.,   684.547119
    340,   750.111084,        1000.,    661.31189
    341,   770.513245,        1000.,   637.424011
    342,   790.155029,        1000.,   612.907043
    343,   809.016968,        1000.,   587.785278
    344,   827.080566,        1000.,   562.083374
    345,   844.327942,        1000.,   535.826782
    346,   860.742004,        1000.,   509.041412
    347,   876.306702,        1000.,   481.753662
    348,   891.006531,        1000.,   453.990509
    349,   904.827026,        1000.,   425.779297
    350,   917.754639,        1000.,   397.147888
    351,   929.776489,        1000.,   368.124542
    352,   940.880798,        1000.,   338.737915
    353,   951.056519,        1000.,   309.016998
    354,   960.293701,        1000.,   278.991119
    355,   968.583191,        1000.,    248.68988
    356,   975.916748,        1000.,   218.143234
    357,   982.287231,        1000.,   187.381317
    358,   987.688354,        1000.,   156.434464
    359,   992.114685,        1000.,   125.333237
    360,   995.561951,        1000.,   94.1083145
    361,   998.026733,        1000.,   62.7905197
    362,   999.506531,        1000.,    31.410759
    363,        1000.,       992.25,           0.
    364,        1000.,        984.5,           0.
    365,        1000.,       976.75,           0.
    366,        1000.,         969.,           0.
    367,        1000.,       961.25,           0.
    368,        1000.,        953.5,           0.
    369,        1000.,       945.75,           0.
    370,        1000.,         938.,           0.
    371,        1000.,       930.25,           0.
    372,        1000.,        922.5,           0.
    373,        1000.,       914.75,           0.
    374,        1000.,         907.,           0.
    375,        1000.,       899.25,           0.
    376,        1000.,        891.5,           0.
    377,        1000.,       883.75,           0.
    378,        1000.,         876.,           0.
    379,        1000.,       868.25,           0.
    380,        1000.,        860.5,           0.
    381,        1000.,       852.75,           0.
    382,        1000.,   136.800003,           0.
    383,        1000.,   129.600006,           0.
    384,        1000.,   122.400002,           0.
    385,        1000.,   115.199997,           0.
    386,        1000.,         108.,           0.
    387,        1000.,   100.800003,           0.
    388,        1000.,   93.5999985,           0.
    389,        1000.,   86.4000015,           0.
    390,        1000.,   79.1999969,           0.
    391,        1000.,          72.,           0.
    392,        1000.,   64.8000031,           0.
    393,        1000.,   57.5999985,           0.
    394,        1000.,   50.4000015,           0.
    395,        1000.,   43.2000008,           0.
    396,        1000.,          36.,           0.
    397,        1000.,   28.7999992,           0.
    398,        1000.,   21.6000004,           0.
    399,        1000.,   14.3999996,           0.
    400,        1000.,   7.19999981,           0.
    401,   999.506531,           0.,    31.410759
    402,   998.026733,           0.,   62.7905197
    403,   995.561951,           0.,   94.1083145
    404,   992.114685,           0.,   125.333237
    405,   987.688354,           0.,   156.434464
    406,   982.287231,           0.,   187.381317
    407,   975.916748,           0.,   218.143234
    408,   968.583191,           0.,    248.68988
    409,   960.293701,           0.,   278.991119
    410,   951.056519,           0.,   309.016998
    411,   940.880798,           0.,   338.737915
    412,   929.776489,           0.,   368.124542
    413,   917.754639,           0.,   397.147888
    414,   904.827026,           0.,   425.779297
    415,   891.006531,           0.,   453.990509
    416,   876.306702,           0.,   481.753662
    417,   860.742004,           0.,   509.041412
    418,   844.327942,           0.,   535.826782
    419,   827.080566,           0.,   562.083374
    420,   809.016968,           0.,   587.785278
    421,   790.155029,           0.,   612.907043
    422,   770.513245,           0.,   637.424011
    423,   750.111084,           0.,    661.31189
    424,   728.968628,           0.,   684.547119
    425,   707.106812,           0.,   707.106812
    426,   684.547119,           0.,   728.968628
    427,    661.31189,           0.,   750.111084
    428,   637.424011,           0.,   770.513245
    429,   612.907043,           0.,   790.155029
    430,   587.785278,           0.,   809.016968
    431,   562.083374,           0.,   827.080566
    432,   535.826782,           0.,   844.327942
    433,   509.041412,           0.,   860.742004
    434,   481.753662,           0.,   876.306702
    435,   453.990509,           0.,   891.006531
    436,   425.779297,           0.,   904.827026
    437,   397.147888,           0.,   917.754639
    438,   368.124542,           0.,   929.776489
    439,   338.737915,           0.,   940.880798
    440,   309.016998,           0.,   951.056519
    441,   278.991119,           0.,   960.293701
    442,    248.68988,           0.,   968.583191
    443,   218.143234,           0.,   975.916748
    444,   187.381317,           0.,   982.287231
    445,   156.434464,           0.,   987.688354
    446,   125.333237,           0.,   992.114685
    447,   94.1083145,           0.,   995.561951
    448,   62.7905197,           0.,   998.026733
    449,    31.410759,           0.,   999.506531
    450,           0.,           0.,        1000.
    451,   -31.410759,           0.,   999.506531
    452,  -62.7905197,           0.,   998.026733
    453,  -94.1083145,           0.,   995.561951
    454,  -125.333237,           0.,   992.114685
    455,  -156.434464,           0.,   987.688354
    456,  -187.381317,           0.,   982.287231
    457,  -218.143234,           0.,   975.916748
    458,   -248.68988,           0.,   968.583191
    459,  -278.991119,           0.,   960.293701
    460,  -309.016998,           0.,   951.056519
    461,  -338.737915,           0.,   940.880798
    462,  -368.124542,           0.,   929.776489
    463,  -397.147888,           0.,   917.754639
    464,  -425.779297,           0.,   904.827026
    465,  -453.990509,           0.,   891.006531
    466,  -481.753662,           0.,   876.306702
    467,  -509.041412,           0.,   860.742004
    468,  -535.826782,           0.,   844.327942
    469,  -562.083374,           0.,   827.080566
    470,  -587.785278,           0.,   809.016968
    471,  -612.907043,           0.,   790.155029
    472,  -637.424011,           0.,   770.513245
    473,   -661.31189,           0.,   750.111084
    474,  -684.547119,           0.,   728.968628
    475,  -707.106812,           0.,   707.106812
    476,  -728.968628,           0.,   684.547119
    477,  -750.111084,           0.,    661.31189
    478,  -770.513245,           0.,   637.424011
    479,  -790.155029,           0.,   612.907043
    480,  -809.016968,           0.,   587.785278
    481,  -827.080566,           0.,   562.083374
    482,  -844.327942,           0.,   535.826782
    483,  -860.742004,           0.,   509.041412
    484,  -876.306702,           0.,   481.753662
    485,  -891.006531,           0.,   453.990509
    486,  -904.827026,           0.,   425.779297
    487,  -917.754639,           0.,   397.147888
    488,  -929.776489,           0.,   368.124542
    489,  -940.880798,           0.,   338.737915
    490,  -951.056519,           0.,   309.016998
    491,  -960.293701,           0.,   278.991119
    492,  -968.583191,           0.,    248.68988
    493,  -975.916748,           0.,   218.143234
    494,  -982.287231,           0.,   187.381317
    495,  -987.688354,           0.,   156.434464
    496,  -992.114685,           0.,   125.333237
    497,  -995.561951,           0.,   94.1083145
    498,  -998.026733,           0.,   62.7905197
    499,  -999.506531,           0.,    31.410759
    500,       -1000.,   7.19999981,           0.
    501,       -1000.,   14.3999996,           0.
    502,       -1000.,   21.6000004,           0.
    503,       -1000.,   28.7999992,           0.
    504,       -1000.,          36.,           0.
    505,       -1000.,   43.2000008,           0.
    506,       -1000.,   50.4000015,           0.
    507,       -1000.,   57.5999985,           0.
    508,       -1000.,   64.8000031,           0.
    509,       -1000.,          72.,           0.
    510,       -1000.,   79.1999969,           0.
    511,       -1000.,   86.4000015,           0.
    512,       -1000.,   93.5999985,           0.
    513,       -1000.,   100.800003,           0.
    514,       -1000.,         108.,           0.
    515,       -1000.,   115.199997,           0.
    516,       -1000.,   122.400002,           0.
    517,       -1000.,   129.600006,           0.
    518,       -1000.,   136.800003,           0.
    519,   999.506531,   179.050003,    31.410759
    520,   998.026733,   179.050003,   62.7905197
    521,   995.561951,   179.050003,   94.1083145
    522,   992.114685,   179.050003,   125.333237
    523,   987.688354,   179.050003,   156.434464
    524,   982.287231,   179.050003,   187.381317
    525,   975.916748,   179.050003,   218.143234
    526,   968.583191,   179.050003,    248.68988
    527,   960.293701,   179.050003,   278.991119
    528,   951.056519,   179.050003,   309.016998
    529,   940.880798,   179.050003,   338.737915
    530,   929.776489,   179.050003,   368.124542
    531,   917.754639,   179.050003,   397.147888
    532,   904.827026,   179.050003,   425.779297
    533,   891.006531,   179.050003,   453.990509
    534,   876.306702,   179.050003,   481.753662
    535,   860.742004,   179.050003,   509.041412
    536,   844.327942,   179.050003,   535.826782
    537,   827.080566,   179.050003,   562.083374
    538,   809.016968,   179.050003,   587.785278
    539,   790.155029,   179.050003,   612.907043
    540,   770.513245,   179.050003,   637.424011
    541,   750.111084,   179.050003,    661.31189
    542,   728.968628,   179.050003,   684.547119
    543,   707.106812,   179.050003,   707.106812
    544,   684.547119,   179.050003,   728.968628
    545,    661.31189,   179.050003,   750.111084
    546,   637.424011,   179.050003,   770.513245
    547,   612.907043,   179.050003,   790.155029
    548,   587.785278,   179.050003,   809.016968
    549,   562.083374,   179.050003,   827.080566
    550,   535.826782,   179.050003,   844.327942
    551,   509.041412,   179.050003,   860.742004
    552,   481.753662,   179.050003,   876.306702
    553,   453.990509,   179.050003,   891.006531
    554,   425.779297,   179.050003,   904.827026
    555,   397.147888,   179.050003,   917.754639
    556,   368.124542,   179.050003,   929.776489
    557,   338.737915,   179.050003,   940.880798
    558,   309.016998,   179.050003,   951.056519
    559,   278.991119,   179.050003,   960.293701
    560,    248.68988,   179.050003,   968.583191
    561,   218.143234,   179.050003,   975.916748
    562,   187.381317,   179.050003,   982.287231
    563,   156.434464,   179.050003,   987.688354
    564,   125.333237,   179.050003,   992.114685
    565,   94.1083145,   179.050003,   995.561951
    566,   62.7905197,   179.050003,   998.026733
    567,    31.410759,   179.050003,   999.506531
    568,           0.,   179.050003,        1000.
    569,   -31.410759,   179.050003,   999.506531
    570,  -62.7905197,   179.050003,   998.026733
    571,  -94.1083145,   179.050003,   995.561951
    572,  -125.333237,   179.050003,   992.114685
    573,  -156.434464,   179.050003,   987.688354
    574,  -187.381317,   179.050003,   982.287231
    575,  -218.143234,   179.050003,   975.916748
    576,   -248.68988,   179.050003,   968.583191
    577,  -278.991119,   179.050003,   960.293701
    578,  -309.016998,   179.050003,   951.056519
    579,  -338.737915,   179.050003,   940.880798
    580,  -368.124542,   179.050003,   929.776489
    581,  -397.147888,   179.050003,   917.754639
    582,  -425.779297,   179.050003,   904.827026
    583,  -453.990509,   179.050003,   891.006531
    584,  -481.753662,   179.050003,   876.306702
    585,  -509.041412,   179.050003,   860.742004
    586,  -535.826782,   179.050003,   844.327942
    587,  -562.083374,   179.050003,   827.080566
    588,  -587.785278,   179.050003,   809.016968
    589,  -612.907043,   179.050003,   790.155029
    590,  -637.424011,   179.050003,   770.513245
    591,   -661.31189,   179.050003,   750.111084
    592,  -684.547119,   179.050003,   728.968628
    593,  -707.106812,   179.050003,   707.106812
    594,  -728.968628,   179.050003,   684.547119
    595,  -750.111084,   179.050003,    661.31189
    596,  -770.513245,   179.050003,   637.424011
    597,  -790.155029,   179.050003,   612.907043
    598,  -809.016968,   179.050003,   587.785278
    599,  -827.080566,   179.050003,   562.083374
    600,  -844.327942,   179.050003,   535.826782
    601,  -860.742004,   179.050003,   509.041412
    602,  -876.306702,   179.050003,   481.753662
    603,  -891.006531,   179.050003,   453.990509
    604,  -904.827026,   179.050003,   425.779297
    605,  -917.754639,   179.050003,   397.147888
    606,  -929.776489,   179.050003,   368.124542
    607,  -940.880798,   179.050003,   338.737915
    608,  -951.056519,   179.050003,   309.016998
    609,  -960.293701,   179.050003,   278.991119
    610,  -968.583191,   179.050003,    248.68988
    611,  -975.916748,   179.050003,   218.143234
    612,  -982.287231,   179.050003,   187.381317
    613,  -987.688354,   179.050003,   156.434464
    614,  -992.114685,   179.050003,   125.333237
    615,  -995.561951,   179.050003,   94.1083145
    616,  -998.026733,   179.050003,   62.7905197
    617,  -999.506531,   179.050003,    31.410759
    618,   999.506531,   214.100006,    31.410759
    619,   998.026733,   214.100006,   62.7905197
    620,   995.561951,   214.100006,   94.1083145
    621,   992.114685,   214.100006,   125.333237
    622,   987.688354,   214.100006,   156.434464
    623,   982.287231,   214.100006,   187.381317
    624,   975.916748,   214.100006,   218.143234
    625,   968.583191,   214.100006,    248.68988
    626,   960.293701,   214.100006,   278.991119
    627,   951.056519,   214.100006,   309.016998
    628,   940.880798,   214.100006,   338.737915
    629,   929.776489,   214.100006,   368.124542
    630,   917.754639,   214.100006,   397.147888
    631,   904.827026,   214.100006,   425.779297
    632,   891.006531,   214.100006,   453.990509
    633,   876.306702,   214.100006,   481.753662
    634,   860.742004,   214.100006,   509.041412
    635,   844.327942,   214.100006,   535.826782
    636,   827.080566,   214.100006,   562.083374
    637,   809.016968,   214.100006,   587.785278
    638,   790.155029,   214.100006,   612.907043
    639,   770.513245,   214.100006,   637.424011
    640,   750.111084,   214.100006,    661.31189
    641,   728.968628,   214.100006,   684.547119
    642,   707.106812,   214.100006,   707.106812
    643,   684.547119,   214.100006,   728.968628
    644,    661.31189,   214.100006,   750.111084
    645,   637.424011,   214.100006,   770.513245
    646,   612.907043,   214.100006,   790.155029
    647,   587.785278,   214.100006,   809.016968
    648,   562.083374,   214.100006,   827.080566
    649,   535.826782,   214.100006,   844.327942
    650,   509.041412,   214.100006,   860.742004
    651,   481.753662,   214.100006,   876.306702
    652,   453.990509,   214.100006,   891.006531
    653,   425.779297,   214.100006,   904.827026
    654,   397.147888,   214.100006,   917.754639
    655,   368.124542,   214.100006,   929.776489
    656,   338.737915,   214.100006,   940.880798
    657,   309.016998,   214.100006,   951.056519
    658,   278.991119,   214.100006,   960.293701
    659,    248.68988,   214.100006,   968.583191
    660,   218.143234,   214.100006,   975.916748
    661,   187.381317,   214.100006,   982.287231
    662,   156.434464,   214.100006,   987.688354
    663,   125.333237,   214.100006,   992.114685
    664,   94.1083145,   214.100006,   995.561951
    665,   62.7905197,   214.100006,   998.026733
    666,    31.410759,   214.100006,   999.506531
    667,           0.,   214.100006,        1000.
    668,   -31.410759,   214.100006,   999.506531
    669,  -62.7905197,   214.100006,   998.026733
    670,  -94.1083145,   214.100006,   995.561951
    671,  -125.333237,   214.100006,   992.114685
    672,  -156.434464,   214.100006,   987.688354
    673,  -187.381317,   214.100006,   982.287231
    674,  -218.143234,   214.100006,   975.916748
    675,   -248.68988,   214.100006,   968.583191
    676,  -278.991119,   214.100006,   960.293701
    677,  -309.016998,   214.100006,   951.056519
    678,  -338.737915,   214.100006,   940.880798
    679,  -368.124542,   214.100006,   929.776489
    680,  -397.147888,   214.100006,   917.754639
    681,  -425.779297,   214.100006,   904.827026
    682,  -453.990509,   214.100006,   891.006531
    683,  -481.753662,   214.100006,   876.306702
    684,  -509.041412,   214.100006,   860.742004
    685,  -535.826782,   214.100006,   844.327942
    686,  -562.083374,   214.100006,   827.080566
    687,  -587.785278,   214.100006,   809.016968
    688,  -612.907043,   214.100006,   790.155029
    689,  -637.424011,   214.100006,   770.513245
    690,   -661.31189,   214.100006,   750.111084
    691,  -684.547119,   214.100006,   728.968628
    692,  -707.106812,   214.100006,   707.106812
    693,  -728.968628,   214.100006,   684.547119
    694,  -750.111084,   214.100006,    661.31189
    695,  -770.513245,   214.100006,   637.424011
    696,  -790.155029,   214.100006,   612.907043
    697,  -809.016968,   214.100006,   587.785278
    698,  -827.080566,   214.100006,   562.083374
    699,  -844.327942,   214.100006,   535.826782
    700,  -860.742004,   214.100006,   509.041412
    701,  -876.306702,   214.100006,   481.753662
    702,  -891.006531,   214.100006,   453.990509
    703,  -904.827026,   214.100006,   425.779297
    704,  -917.754639,   214.100006,   397.147888
    705,  -929.776489,   214.100006,   368.124542
    706,  -940.880798,   214.100006,   338.737915
    707,  -951.056519,   214.100006,   309.016998
    708,  -960.293701,   214.100006,   278.991119
    709,  -968.583191,   214.100006,    248.68988
    710,  -975.916748,   214.100006,   218.143234
    711,  -982.287231,   214.100006,   187.381317
    712,  -987.688354,   214.100006,   156.434464
    713,  -992.114685,   214.100006,   125.333237
    714,  -995.561951,   214.100006,   94.1083145
    715,  -998.026733,   214.100006,   62.7905197
    716,  -999.506531,   214.100006,    31.410759
    717,   999.506531,   249.149994,    31.410759
    718,   998.026733,   249.149994,   62.7905197
    719,   995.561951,   249.149994,   94.1083145
    720,   992.114685,   249.149994,   125.333237
    721,   987.688354,   249.149994,   156.434464
    722,   982.287231,   249.149994,   187.381317
    723,   975.916748,   249.149994,   218.143234
    724,   968.583191,   249.149994,    248.68988
    725,   960.293701,   249.149994,   278.991119
    726,   951.056519,   249.149994,   309.016998
    727,   940.880798,   249.149994,   338.737915
    728,   929.776489,   249.149994,   368.124542
    729,   917.754639,   249.149994,   397.147888
    730,   904.827026,   249.149994,   425.779297
    731,   891.006531,   249.149994,   453.990509
    732,   876.306702,   249.149994,   481.753662
    733,   860.742004,   249.149994,   509.041412
    734,   844.327942,   249.149994,   535.826782
    735,   827.080566,   249.149994,   562.083374
    736,   809.016968,   249.149994,   587.785278
    737,   790.155029,   249.149994,   612.907043
    738,   770.513245,   249.149994,   637.424011
    739,   750.111084,   249.149994,    661.31189
    740,   728.968628,   249.149994,   684.547119
    741,   707.106812,   249.149994,   707.106812
    742,   684.547119,   249.149994,   728.968628
    743,    661.31189,   249.149994,   750.111084
    744,   637.424011,   249.149994,   770.513245
    745,   612.907043,   249.149994,   790.155029
    746,   587.785278,   249.149994,   809.016968
    747,   562.083374,   249.149994,   827.080566
    748,   535.826782,   249.149994,   844.327942
    749,   509.041412,   249.149994,   860.742004
    750,   481.753662,   249.149994,   876.306702
    751,   453.990509,   249.149994,   891.006531
    752,   425.779297,   249.149994,   904.827026
    753,   397.147888,   249.149994,   917.754639
    754,   368.124542,   249.149994,   929.776489
    755,   338.737915,   249.149994,   940.880798
    756,   309.016998,   249.149994,   951.056519
    757,   278.991119,   249.149994,   960.293701
    758,    248.68988,   249.149994,   968.583191
    759,   218.143234,   249.149994,   975.916748
    760,   187.381317,   249.149994,   982.287231
    761,   156.434464,   249.149994,   987.688354
    762,   125.333237,   249.149994,   992.114685
    763,   94.1083145,   249.149994,   995.561951
    764,   62.7905197,   249.149994,   998.026733
    765,    31.410759,   249.149994,   999.506531
    766,           0.,   249.149994,        1000.
    767,   -31.410759,   249.149994,   999.506531
    768,  -62.7905197,   249.149994,   998.026733
    769,  -94.1083145,   249.149994,   995.561951
    770,  -125.333237,   249.149994,   992.114685
    771,  -156.434464,   249.149994,   987.688354
    772,  -187.381317,   249.149994,   982.287231
    773,  -218.143234,   249.149994,   975.916748
    774,   -248.68988,   249.149994,   968.583191
    775,  -278.991119,   249.149994,   960.293701
    776,  -309.016998,   249.149994,   951.056519
    777,  -338.737915,   249.149994,   940.880798
    778,  -368.124542,   249.149994,   929.776489
    779,  -397.147888,   249.149994,   917.754639
    780,  -425.779297,   249.149994,   904.827026
    781,  -453.990509,   249.149994,   891.006531
    782,  -481.753662,   249.149994,   876.306702
    783,  -509.041412,   249.149994,   860.742004
    784,  -535.826782,   249.149994,   844.327942
    785,  -562.083374,   249.149994,   827.080566
    786,  -587.785278,   249.149994,   809.016968
    787,  -612.907043,   249.149994,   790.155029
    788,  -637.424011,   249.149994,   770.513245
    789,   -661.31189,   249.149994,   750.111084
    790,  -684.547119,   249.149994,   728.968628
    791,  -707.106812,   249.149994,   707.106812
    792,  -728.968628,   249.149994,   684.547119
    793,  -750.111084,   249.149994,    661.31189
    794,  -770.513245,   249.149994,   637.424011
    795,  -790.155029,   249.149994,   612.907043
    796,  -809.016968,   249.149994,   587.785278
    797,  -827.080566,   249.149994,   562.083374
    798,  -844.327942,   249.149994,   535.826782
    799,  -860.742004,   249.149994,   509.041412
    800,  -876.306702,   249.149994,   481.753662
    801,  -891.006531,   249.149994,   453.990509
    802,  -904.827026,   249.149994,   425.779297
    803,  -917.754639,   249.149994,   397.147888
    804,  -929.776489,   249.149994,   368.124542
    805,  -940.880798,   249.149994,   338.737915
    806,  -951.056519,   249.149994,   309.016998
    807,  -960.293701,   249.149994,   278.991119
    808,  -968.583191,   249.149994,    248.68988
    809,  -975.916748,   249.149994,   218.143234
    810,  -982.287231,   249.149994,   187.381317
    811,  -987.688354,   249.149994,   156.434464
    812,  -992.114685,   249.149994,   125.333237
    813,  -995.561951,   249.149994,   94.1083145
    814,  -998.026733,   249.149994,   62.7905197
    815,  -999.506531,   249.149994,    31.410759
    816,   999.506531,   284.200012,    31.410759
    817,   998.026733,   284.200012,   62.7905197
    818,   995.561951,   284.200012,   94.1083145
    819,   992.114685,   284.200012,   125.333237
    820,   987.688354,   284.200012,   156.434464
    821,   982.287231,   284.200012,   187.381317
    822,   975.916748,   284.200012,   218.143234
    823,   968.583191,   284.200012,    248.68988
    824,   960.293701,   284.200012,   278.991119
    825,   951.056519,   284.200012,   309.016998
    826,   940.880798,   284.200012,   338.737915
    827,   929.776489,   284.200012,   368.124542
    828,   917.754639,   284.200012,   397.147888
    829,   904.827026,   284.200012,   425.779297
    830,   891.006531,   284.200012,   453.990509
    831,   876.306702,   284.200012,   481.753662
    832,   860.742004,   284.200012,   509.041412
    833,   844.327942,   284.200012,   535.826782
    834,   827.080566,   284.200012,   562.083374
    835,   809.016968,   284.200012,   587.785278
    836,   790.155029,   284.200012,   612.907043
    837,   770.513245,   284.200012,   637.424011
    838,   750.111084,   284.200012,    661.31189
    839,   728.968628,   284.200012,   684.547119
    840,   707.106812,   284.200012,   707.106812
    841,   684.547119,   284.200012,   728.968628
    842,    661.31189,   284.200012,   750.111084
    843,   637.424011,   284.200012,   770.513245
    844,   612.907043,   284.200012,   790.155029
    845,   587.785278,   284.200012,   809.016968
    846,   562.083374,   284.200012,   827.080566
    847,   535.826782,   284.200012,   844.327942
    848,   509.041412,   284.200012,   860.742004
    849,   481.753662,   284.200012,   876.306702
    850,   453.990509,   284.200012,   891.006531
    851,   425.779297,   284.200012,   904.827026
    852,   397.147888,   284.200012,   917.754639
    853,   368.124542,   284.200012,   929.776489
    854,   338.737915,   284.200012,   940.880798
    855,   309.016998,   284.200012,   951.056519
    856,   278.991119,   284.200012,   960.293701
    857,    248.68988,   284.200012,   968.583191
    858,   218.143234,   284.200012,   975.916748
    859,   187.381317,   284.200012,   982.287231
    860,   156.434464,   284.200012,   987.688354
    861,   125.333237,   284.200012,   992.114685
    862,   94.1083145,   284.200012,   995.561951
    863,   62.7905197,   284.200012,   998.026733
    864,    31.410759,   284.200012,   999.506531
    865,           0.,   284.200012,        1000.
    866,   -31.410759,   284.200012,   999.506531
    867,  -62.7905197,   284.200012,   998.026733
    868,  -94.1083145,   284.200012,   995.561951
    869,  -125.333237,   284.200012,   992.114685
    870,  -156.434464,   284.200012,   987.688354
    871,  -187.381317,   284.200012,   982.287231
    872,  -218.143234,   284.200012,   975.916748
    873,   -248.68988,   284.200012,   968.583191
    874,  -278.991119,   284.200012,   960.293701
    875,  -309.016998,   284.200012,   951.056519
    876,  -338.737915,   284.200012,   940.880798
    877,  -368.124542,   284.200012,   929.776489
    878,  -397.147888,   284.200012,   917.754639
    879,  -425.779297,   284.200012,   904.827026
    880,  -453.990509,   284.200012,   891.006531
    881,  -481.753662,   284.200012,   876.306702
    882,  -509.041412,   284.200012,   860.742004
    883,  -535.826782,   284.200012,   844.327942
    884,  -562.083374,   284.200012,   827.080566
    885,  -587.785278,   284.200012,   809.016968
    886,  -612.907043,   284.200012,   790.155029
    887,  -637.424011,   284.200012,   770.513245
    888,   -661.31189,   284.200012,   750.111084
    889,  -684.547119,   284.200012,   728.968628
    890,  -707.106812,   284.200012,   707.106812
    891,  -728.968628,   284.200012,   684.547119
    892,  -750.111084,   284.200012,    661.31189
    893,  -770.513245,   284.200012,   637.424011
    894,  -790.155029,   284.200012,   612.907043
    895,  -809.016968,   284.200012,   587.785278
    896,  -827.080566,   284.200012,   562.083374
    897,  -844.327942,   284.200012,   535.826782
    898,  -860.742004,   284.200012,   509.041412
    899,  -876.306702,   284.200012,   481.753662
    900,  -891.006531,   284.200012,   453.990509
    901,  -904.827026,   284.200012,   425.779297
    902,  -917.754639,   284.200012,   397.147888
    903,  -929.776489,   284.200012,   368.124542
    904,  -940.880798,   284.200012,   338.737915
    905,  -951.056519,   284.200012,   309.016998
    906,  -960.293701,   284.200012,   278.991119
    907,  -968.583191,   284.200012,    248.68988
    908,  -975.916748,   284.200012,   218.143234
    909,  -982.287231,   284.200012,   187.381317
    910,  -987.688354,   284.200012,   156.434464
    911,  -992.114685,   284.200012,   125.333237
    912,  -995.561951,   284.200012,   94.1083145
    913,  -998.026733,   284.200012,   62.7905197
    914,  -999.506531,   284.200012,    31.410759
    915,   999.506531,       319.25,    31.410759
    916,   998.026733,       319.25,   62.7905197
    917,   995.561951,       319.25,   94.1083145
    918,   992.114685,       319.25,   125.333237
    919,   987.688354,       319.25,   156.434464
    920,   982.287231,       319.25,   187.381317
    921,   975.916748,       319.25,   218.143234
    922,   968.583191,       319.25,    248.68988
    923,   960.293701,       319.25,   278.991119
    924,   951.056519,       319.25,   309.016998
    925,   940.880798,       319.25,   338.737915
    926,   929.776489,       319.25,   368.124542
    927,   917.754639,       319.25,   397.147888
    928,   904.827026,       319.25,   425.779297
    929,   891.006531,       319.25,   453.990509
    930,   876.306702,       319.25,   481.753662
    931,   860.742004,       319.25,   509.041412
    932,   844.327942,       319.25,   535.826782
    933,   827.080566,       319.25,   562.083374
    934,   809.016968,       319.25,   587.785278
    935,   790.155029,       319.25,   612.907043
    936,   770.513245,       319.25,   637.424011
    937,   750.111084,       319.25,    661.31189
    938,   728.968628,       319.25,   684.547119
    939,   707.106812,       319.25,   707.106812
    940,   684.547119,       319.25,   728.968628
    941,    661.31189,       319.25,   750.111084
    942,   637.424011,       319.25,   770.513245
    943,   612.907043,       319.25,   790.155029
    944,   587.785278,       319.25,   809.016968
    945,   562.083374,       319.25,   827.080566
    946,   535.826782,       319.25,   844.327942
    947,   509.041412,       319.25,   860.742004
    948,   481.753662,       319.25,   876.306702
    949,   453.990509,       319.25,   891.006531
    950,   425.779297,       319.25,   904.827026
    951,   397.147888,       319.25,   917.754639
    952,   368.124542,       319.25,   929.776489
    953,   338.737915,       319.25,   940.880798
    954,   309.016998,       319.25,   951.056519
    955,   278.991119,       319.25,   960.293701
    956,    248.68988,       319.25,   968.583191
    957,   218.143234,       319.25,   975.916748
    958,   187.381317,       319.25,   982.287231
    959,   156.434464,       319.25,   987.688354
    960,   125.333237,       319.25,   992.114685
    961,   94.1083145,       319.25,   995.561951
    962,   62.7905197,       319.25,   998.026733
    963,    31.410759,       319.25,   999.506531
    964,           0.,       319.25,        1000.
    965,   -31.410759,       319.25,   999.506531
    966,  -62.7905197,       319.25,   998.026733
    967,  -94.1083145,       319.25,   995.561951
    968,  -125.333237,       319.25,   992.114685
    969,  -156.434464,       319.25,   987.688354
    970,  -187.381317,       319.25,   982.287231
    971,  -218.143234,       319.25,   975.916748
    972,   -248.68988,       319.25,   968.583191
    973,  -278.991119,       319.25,   960.293701
    974,  -309.016998,       319.25,   951.056519
    975,  -338.737915,       319.25,   940.880798
    976,  -368.124542,       319.25,   929.776489
    977,  -397.147888,       319.25,   917.754639
    978,  -425.779297,       319.25,   904.827026
    979,  -453.990509,       319.25,   891.006531
    980,  -481.753662,       319.25,   876.306702
    981,  -509.041412,       319.25,   860.742004
    982,  -535.826782,       319.25,   844.327942
    983,  -562.083374,       319.25,   827.080566
    984,  -587.785278,       319.25,   809.016968
    985,  -612.907043,       319.25,   790.155029
    986,  -637.424011,       319.25,   770.513245
    987,   -661.31189,       319.25,   750.111084
    988,  -684.547119,       319.25,   728.968628
    989,  -707.106812,       319.25,   707.106812
    990,  -728.968628,       319.25,   684.547119
    991,  -750.111084,       319.25,    661.31189
    992,  -770.513245,       319.25,   637.424011
    993,  -790.155029,       319.25,   612.907043
    994,  -809.016968,       319.25,   587.785278
    995,  -827.080566,       319.25,   562.083374
    996,  -844.327942,       319.25,   535.826782
    997,  -860.742004,       319.25,   509.041412
    998,  -876.306702,       319.25,   481.753662
    999,  -891.006531,       319.25,   453.990509
   1000,  -904.827026,       319.25,   425.779297
   1001,  -917.754639,       319.25,   397.147888
   1002,  -929.776489,       319.25,   368.124542
   1003,  -940.880798,       319.25,   338.737915
   1004,  -951.056519,       319.25,   309.016998
   1005,  -960.293701,       319.25,   278.991119
   1006,  -968.583191,       319.25,    248.68988
   1007,  -975.916748,       319.25,   218.143234
   1008,  -982.287231,       319.25,   187.381317
   1009,  -987.688354,       319.25,   156.434464
   1010,  -992.114685,       319.25,   125.333237
   1011,  -995.561951,       319.25,   94.1083145
   1012,  -998.026733,       319.25,   62.7905197
   1013,  -999.506531,       319.25,    31.410759
   1014,   999.506531,   354.299988,    31.410759
   1015,   998.026733,   354.299988,   62.7905197
   1016,   995.561951,   354.299988,   94.1083145
   1017,   992.114685,   354.299988,   125.333237
   1018,   987.688354,   354.299988,   156.434464
   1019,   982.287231,   354.299988,   187.381317
   1020,   975.916748,   354.299988,   218.143234
   1021,   968.583191,   354.299988,    248.68988
   1022,   960.293701,   354.299988,   278.991119
   1023,   951.056519,   354.299988,   309.016998
   1024,   940.880798,   354.299988,   338.737915
   1025,   929.776489,   354.299988,   368.124542
   1026,   917.754639,   354.299988,   397.147888
   1027,   904.827026,   354.299988,   425.779297
   1028,   891.006531,   354.299988,   453.990509
   1029,   876.306702,   354.299988,   481.753662
   1030,   860.742004,   354.299988,   509.041412
   1031,   844.327942,   354.299988,   535.826782
   1032,   827.080566,   354.299988,   562.083374
   1033,   809.016968,   354.299988,   587.785278
   1034,   790.155029,   354.299988,   612.907043
   1035,   770.513245,   354.299988,   637.424011
   1036,   750.111084,   354.299988,    661.31189
   1037,   728.968628,   354.299988,   684.547119
   1038,   707.106812,   354.299988,   707.106812
   1039,   684.547119,   354.299988,   728.968628
   1040,    661.31189,   354.299988,   750.111084
   1041,   637.424011,   354.299988,   770.513245
   1042,   612.907043,   354.299988,   790.155029
   1043,   587.785278,   354.299988,   809.016968
   1044,   562.083374,   354.299988,   827.080566
   1045,   535.826782,   354.299988,   844.327942
   1046,   509.041412,   354.299988,   860.742004
   1047,   481.753662,   354.299988,   876.306702
   1048,   453.990509,   354.299988,   891.006531
   1049,   425.779297,   354.299988,   904.827026
   1050,   397.147888,   354.299988,   917.754639
   1051,   368.124542,   354.299988,   929.776489
   1052,   338.737915,   354.299988,   940.880798
   1053,   309.016998,   354.299988,   951.056519
   1054,   278.991119,   354.299988,   960.293701
   1055,    248.68988,   354.299988,   968.583191
   1056,   218.143234,   354.299988,   975.916748
   1057,   187.381317,   354.299988,   982.287231
   1058,   156.434464,   354.299988,   987.688354
   1059,   125.333237,   354.299988,   992.114685
   1060,   94.1083145,   354.299988,   995.561951
   1061,   62.7905197,   354.299988,   998.026733
   1062,    31.410759,   354.299988,   999.506531
   1063,           0.,   354.299988,        1000.
   1064,   -31.410759,   354.299988,   999.506531
   1065,  -62.7905197,   354.299988,   998.026733
   1066,  -94.1083145,   354.299988,   995.561951
   1067,  -125.333237,   354.299988,   992.114685
   1068,  -156.434464,   354.299988,   987.688354
   1069,  -187.381317,   354.299988,   982.287231
   1070,  -218.143234,   354.299988,   975.916748
   1071,   -248.68988,   354.299988,   968.583191
   1072,  -278.991119,   354.299988,   960.293701
   1073,  -309.016998,   354.299988,   951.056519
   1074,  -338.737915,   354.299988,   940.880798
   1075,  -368.124542,   354.299988,   929.776489
   1076,  -397.147888,   354.299988,   917.754639
   1077,  -425.779297,   354.299988,   904.827026
   1078,  -453.990509,   354.299988,   891.006531
   1079,  -481.753662,   354.299988,   876.306702
   1080,  -509.041412,   354.299988,   860.742004
   1081,  -535.826782,   354.299988,   844.327942
   1082,  -562.083374,   354.299988,   827.080566
   1083,  -587.785278,   354.299988,   809.016968
   1084,  -612.907043,   354.299988,   790.155029
   1085,  -637.424011,   354.299988,   770.513245
   1086,   -661.31189,   354.299988,   750.111084
   1087,  -684.547119,   354.299988,   728.968628
   1088,  -707.106812,   354.299988,   707.106812
   1089,  -728.968628,   354.299988,   684.547119
   1090,  -750.111084,   354.299988,    661.31189
   1091,  -770.513245,   354.299988,   637.424011
   1092,  -790.155029,   354.299988,   612.907043
   1093,  -809.016968,   354.299988,   587.785278
   1094,  -827.080566,   354.299988,   562.083374
   1095,  -844.327942,   354.299988,   535.826782
   1096,  -860.742004,   354.299988,   509.041412
   1097,  -876.306702,   354.299988,   481.753662
   1098,  -891.006531,   354.299988,   453.990509
   1099,  -904.827026,   354.299988,   425.779297
   1100,  -917.754639,   354.299988,   397.147888
   1101,  -929.776489,   354.299988,   368.124542
   1102,  -940.880798,   354.299988,   338.737915
   1103,  -951.056519,   354.299988,   309.016998
   1104,  -960.293701,   354.299988,   278.991119
   1105,  -968.583191,   354.299988,    248.68988
   1106,  -975.916748,   354.299988,   218.143234
   1107,  -982.287231,   354.299988,   187.381317
   1108,  -987.688354,   354.299988,   156.434464
   1109,  -992.114685,   354.299988,   125.333237
   1110,  -995.561951,   354.299988,   94.1083145
   1111,  -998.026733,   354.299988,   62.7905197
   1112,  -999.506531,   354.299988,    31.410759
   1113,   999.506531,   389.350006,    31.410759
   1114,   998.026733,   389.350006,   62.7905197
   1115,   995.561951,   389.350006,   94.1083145
   1116,   992.114685,   389.350006,   125.333237
   1117,   987.688354,   389.350006,   156.434464
   1118,   982.287231,   389.350006,   187.381317
   1119,   975.916748,   389.350006,   218.143234
   1120,   968.583191,   389.350006,    248.68988
   1121,   960.293701,   389.350006,   278.991119
   1122,   951.056519,   389.350006,   309.016998
   1123,   940.880798,   389.350006,   338.737915
   1124,   929.776489,   389.350006,   368.124542
   1125,   917.754639,   389.350006,   397.147888
   1126,   904.827026,   389.350006,   425.779297
   1127,   891.006531,   389.350006,   453.990509
   1128,   876.306702,   389.350006,   481.753662
   1129,   860.742004,   389.350006,   509.041412
   1130,   844.327942,   389.350006,   535.826782
   1131,   827.080566,   389.350006,   562.083374
   1132,   809.016968,   389.350006,   587.785278
   1133,   790.155029,   389.350006,   612.907043
   1134,   770.513245,   389.350006,   637.424011
   1135,   750.111084,   389.350006,    661.31189
   1136,   728.968628,   389.350006,   684.547119
   1137,   707.106812,   389.350006,   707.106812
   1138,   684.547119,   389.350006,   728.968628
   1139,    661.31189,   389.350006,   750.111084
   1140,   637.424011,   389.350006,   770.513245
   1141,   612.907043,   389.350006,   790.155029
   1142,   587.785278,   389.350006,   809.016968
   1143,   562.083374,   389.350006,   827.080566
   1144,   535.826782,   389.350006,   844.327942
   1145,   509.041412,   389.350006,   860.742004
   1146,   481.753662,   389.350006,   876.306702
   1147,   453.990509,   389.350006,   891.006531
   1148,   425.779297,   389.350006,   904.827026
   1149,   397.147888,   389.350006,   917.754639
   1150,   368.124542,   389.350006,   929.776489
   1151,   338.737915,   389.350006,   940.880798
   1152,   309.016998,   389.350006,   951.056519
   1153,   278.991119,   389.350006,   960.293701
   1154,    248.68988,   389.350006,   968.583191
   1155,   218.143234,   389.350006,   975.916748
   1156,   187.381317,   389.350006,   982.287231
   1157,   156.434464,   389.350006,   987.688354
   1158,   125.333237,   389.350006,   992.114685
   1159,   94.1083145,   389.350006,   995.561951
   1160,   62.7905197,   389.350006,   998.026733
   1161,    31.410759,   389.350006,   999.506531
   1162,           0.,   389.350006,        1000.
   1163,   -31.410759,   389.350006,   999.506531
   1164,  -62.7905197,   389.350006,   998.026733
   1165,  -94.1083145,   389.350006,   995.561951
   1166,  -125.333237,   389.350006,   992.114685
   1167,  -156.434464,   389.350006,   987.688354
   1168,  -187.381317,   389.350006,   982.287231
   1169,  -218.143234,   389.350006,   975.916748
   1170,   -248.68988,   389.350006,   968.583191
   1171,  -278.991119,   389.350006,   960.293701
   1172,  -309.016998,   389.350006,   951.056519
   1173,  -338.737915,   389.350006,   940.880798
   1174,  -368.124542,   389.350006,   929.776489
   1175,  -397.147888,   389.350006,   917.754639
   1176,  -425.779297,   389.350006,   904.827026
   1177,  -453.990509,   389.350006,   891.006531
   1178,  -481.753662,   389.350006,   876.306702
   1179,  -509.041412,   389.350006,   860.742004
   1180,  -535.826782,   389.350006,   844.327942
   1181,  -562.083374,   389.350006,   827.080566
   1182,  -587.785278,   389.350006,   809.016968
   1183,  -612.907043,   389.350006,   790.155029
   1184,  -637.424011,   389.350006,   770.513245
   1185,   -661.31189,   389.350006,   750.111084
   1186,  -684.547119,   389.350006,   728.968628
   1187,  -707.106812,   389.350006,   707.106812
   1188,  -728.968628,   389.350006,   684.547119
   1189,  -750.111084,   389.350006,    661.31189
   1190,  -770.513245,   389.350006,   637.424011
   1191,  -790.155029,   389.350006,   612.907043
   1192,  -809.016968,   389.350006,   587.785278
   1193,  -827.080566,   389.350006,   562.083374
   1194,  -844.327942,   389.350006,   535.826782
   1195,  -860.742004,   389.350006,   509.041412
   1196,  -876.306702,   389.350006,   481.753662
   1197,  -891.006531,   389.350006,   453.990509
   1198,  -904.827026,   389.350006,   425.779297
   1199,  -917.754639,   389.350006,   397.147888
   1200,  -929.776489,   389.350006,   368.124542
   1201,  -940.880798,   389.350006,   338.737915
   1202,  -951.056519,   389.350006,   309.016998
   1203,  -960.293701,   389.350006,   278.991119
   1204,  -968.583191,   389.350006,    248.68988
   1205,  -975.916748,   389.350006,   218.143234
   1206,  -982.287231,   389.350006,   187.381317
   1207,  -987.688354,   389.350006,   156.434464
   1208,  -992.114685,   389.350006,   125.333237
   1209,  -995.561951,   389.350006,   94.1083145
   1210,  -998.026733,   389.350006,   62.7905197
   1211,  -999.506531,   389.350006,    31.410759
   1212,   999.506531,   424.399994,    31.410759
   1213,   998.026733,   424.399994,   62.7905197
   1214,   995.561951,   424.399994,   94.1083145
   1215,   992.114685,   424.399994,   125.333237
   1216,   987.688354,   424.399994,   156.434464
   1217,   982.287231,   424.399994,   187.381317
   1218,   975.916748,   424.399994,   218.143234
   1219,   968.583191,   424.399994,    248.68988
   1220,   960.293701,   424.399994,   278.991119
   1221,   951.056519,   424.399994,   309.016998
   1222,   940.880798,   424.399994,   338.737915
   1223,   929.776489,   424.399994,   368.124542
   1224,   917.754639,   424.399994,   397.147888
   1225,   904.827026,   424.399994,   425.779297
   1226,   891.006531,   424.399994,   453.990509
   1227,   876.306702,   424.399994,   481.753662
   1228,   860.742004,   424.399994,   509.041412
   1229,   844.327942,   424.399994,   535.826782
   1230,   827.080566,   424.399994,   562.083374
   1231,   809.016968,   424.399994,   587.785278
   1232,   790.155029,   424.399994,   612.907043
   1233,   770.513245,   424.399994,   637.424011
   1234,   750.111084,   424.399994,    661.31189
   1235,   728.968628,   424.399994,   684.547119
   1236,   707.106812,   424.399994,   707.106812
   1237,   684.547119,   424.399994,   728.968628
   1238,    661.31189,   424.399994,   750.111084
   1239,   637.424011,   424.399994,   770.513245
   1240,   612.907043,   424.399994,   790.155029
   1241,   587.785278,   424.399994,   809.016968
   1242,   562.083374,   424.399994,   827.080566
   1243,   535.826782,   424.399994,   844.327942
   1244,   509.041412,   424.399994,   860.742004
   1245,   481.753662,   424.399994,   876.306702
   1246,   453.990509,   424.399994,   891.006531
   1247,   425.779297,   424.399994,   904.827026
   1248,   397.147888,   424.399994,   917.754639
   1249,   368.124542,   424.399994,   929.776489
   1250,   338.737915,   424.399994,   940.880798
   1251,   309.016998,   424.399994,   951.056519
   1252,   278.991119,   424.399994,   960.293701
   1253,    248.68988,   424.399994,   968.583191
   1254,   218.143234,   424.399994,   975.916748
   1255,   187.381317,   424.399994,   982.287231
   1256,   156.434464,   424.399994,   987.688354
   1257,   125.333237,   424.399994,   992.114685
   1258,   94.1083145,   424.399994,   995.561951
   1259,   62.7905197,   424.399994,   998.026733
   1260,    31.410759,   424.399994,   999.506531
   1261,           0.,   424.399994,        1000.
   1262,   -31.410759,   424.399994,   999.506531
   1263,  -62.7905197,   424.399994,   998.026733
   1264,  -94.1083145,   424.399994,   995.561951
   1265,  -125.333237,   424.399994,   992.114685
   1266,  -156.434464,   424.399994,   987.688354
   1267,  -187.381317,   424.399994,   982.287231
   1268,  -218.143234,   424.399994,   975.916748
   1269,   -248.68988,   424.399994,   968.583191
   1270,  -278.991119,   424.399994,   960.293701
   1271,  -309.016998,   424.399994,   951.056519
   1272,  -338.737915,   424.399994,   940.880798
   1273,  -368.124542,   424.399994,   929.776489
   1274,  -397.147888,   424.399994,   917.754639
   1275,  -425.779297,   424.399994,   904.827026
   1276,  -453.990509,   424.399994,   891.006531
   1277,  -481.753662,   424.399994,   876.306702
   1278,  -509.041412,   424.399994,   860.742004
   1279,  -535.826782,   424.399994,   844.327942
   1280,  -562.083374,   424.399994,   827.080566
   1281,  -587.785278,   424.399994,   809.016968
   1282,  -612.907043,   424.399994,   790.155029
   1283,  -637.424011,   424.399994,   770.513245
   1284,   -661.31189,   424.399994,   750.111084
   1285,  -684.547119,   424.399994,   728.968628
   1286,  -707.106812,   424.399994,   707.106812
   1287,  -728.968628,   424.399994,   684.547119
   1288,  -750.111084,   424.399994,    661.31189
   1289,  -770.513245,   424.399994,   637.424011
   1290,  -790.155029,   424.399994,   612.907043
   1291,  -809.016968,   424.399994,   587.785278
   1292,  -827.080566,   424.399994,   562.083374
   1293,  -844.327942,   424.399994,   535.826782
   1294,  -860.742004,   424.399994,   509.041412
   1295,  -876.306702,   424.399994,   481.753662
   1296,  -891.006531,   424.399994,   453.990509
   1297,  -904.827026,   424.399994,   425.779297
   1298,  -917.754639,   424.399994,   397.147888
   1299,  -929.776489,   424.399994,   368.124542
   1300,  -940.880798,   424.399994,   338.737915
   1301,  -951.056519,   424.399994,   309.016998
   1302,  -960.293701,   424.399994,   278.991119
   1303,  -968.583191,   424.399994,    248.68988
   1304,  -975.916748,   424.399994,   218.143234
   1305,  -982.287231,   424.399994,   187.381317
   1306,  -987.688354,   424.399994,   156.434464
   1307,  -992.114685,   424.399994,   125.333237
   1308,  -995.561951,   424.399994,   94.1083145
   1309,  -998.026733,   424.399994,   62.7905197
   1310,  -999.506531,   424.399994,    31.410759
   1311,   999.506531,   459.450012,    31.410759
   1312,   998.026733,   459.450012,   62.7905197
   1313,   995.561951,   459.450012,   94.1083145
   1314,   992.114685,   459.450012,   125.333237
   1315,   987.688354,   459.450012,   156.434464
   1316,   982.287231,   459.450012,   187.381317
   1317,   975.916748,   459.450012,   218.143234
   1318,   968.583191,   459.450012,    248.68988
   1319,   960.293701,   459.450012,   278.991119
   1320,   951.056519,   459.450012,   309.016998
   1321,   940.880798,   459.450012,   338.737915
   1322,   929.776489,   459.450012,   368.124542
   1323,   917.754639,   459.450012,   397.147888
   1324,   904.827026,   459.450012,   425.779297
   1325,   891.006531,   459.450012,   453.990509
   1326,   876.306702,   459.450012,   481.753662
   1327,   860.742004,   459.450012,   509.041412
   1328,   844.327942,   459.450012,   535.826782
   1329,   827.080566,   459.450012,   562.083374
   1330,   809.016968,   459.450012,   587.785278
   1331,   790.155029,   459.450012,   612.907043
   1332,   770.513245,   459.450012,   637.424011
   1333,   750.111084,   459.450012,    661.31189
   1334,   728.968628,   459.450012,   684.547119
   1335,   707.106812,   459.450012,   707.106812
   1336,   684.547119,   459.450012,   728.968628
   1337,    661.31189,   459.450012,   750.111084
   1338,   637.424011,   459.450012,   770.513245
   1339,   612.907043,   459.450012,   790.155029
   1340,   587.785278,   459.450012,   809.016968
   1341,   562.083374,   459.450012,   827.080566
   1342,   535.826782,   459.450012,   844.327942
   1343,   509.041412,   459.450012,   860.742004
   1344,   481.753662,   459.450012,   876.306702
   1345,   453.990509,   459.450012,   891.006531
   1346,   425.779297,   459.450012,   904.827026
   1347,   397.147888,   459.450012,   917.754639
   1348,   368.124542,   459.450012,   929.776489
   1349,   338.737915,   459.450012,   940.880798
   1350,   309.016998,   459.450012,   951.056519
   1351,   278.991119,   459.450012,   960.293701
   1352,    248.68988,   459.450012,   968.583191
   1353,   218.143234,   459.450012,   975.916748
   1354,   187.381317,   459.450012,   982.287231
   1355,   156.434464,   459.450012,   987.688354
   1356,   125.333237,   459.450012,   992.114685
   1357,   94.1083145,   459.450012,   995.561951
   1358,   62.7905197,   459.450012,   998.026733
   1359,    31.410759,   459.450012,   999.506531
   1360,           0.,   459.450012,        1000.
   1361,   -31.410759,   459.450012,   999.506531
   1362,  -62.7905197,   459.450012,   998.026733
   1363,  -94.1083145,   459.450012,   995.561951
   1364,  -125.333237,   459.450012,   992.114685
   1365,  -156.434464,   459.450012,   987.688354
   1366,  -187.381317,   459.450012,   982.287231
   1367,  -218.143234,   459.450012,   975.916748
   1368,   -248.68988,   459.450012,   968.583191
   1369,  -278.991119,   459.450012,   960.293701
   1370,  -309.016998,   459.450012,   951.056519
   1371,  -338.737915,   459.450012,   940.880798
   1372,  -368.124542,   459.450012,   929.776489
   1373,  -397.147888,   459.450012,   917.754639
   1374,  -425.779297,   459.450012,   904.827026
   1375,  -453.990509,   459.450012,   891.006531
   1376,  -481.753662,   459.450012,   876.306702
   1377,  -509.041412,   459.450012,   860.742004
   1378,  -535.826782,   459.450012,   844.327942
   1379,  -562.083374,   459.450012,   827.080566
   1380,  -587.785278,   459.450012,   809.016968
   1381,  -612.907043,   459.450012,   790.155029
   1382,  -637.424011,   459.450012,   770.513245
   1383,   -661.31189,   459.450012,   750.111084
   1384,  -684.547119,   459.450012,   728.968628
   1385,  -707.106812,   459.450012,   707.106812
   1386,  -728.968628,   459.450012,   684.547119
   1387,  -750.111084,   459.450012,    661.31189
   1388,  -770.513245,   459.450012,   637.424011
   1389,  -790.155029,   459.450012,   612.907043
   1390,  -809.016968,   459.450012,   587.785278
   1391,  -827.080566,   459.450012,   562.083374
   1392,  -844.327942,   459.450012,   535.826782
   1393,  -860.742004,   459.450012,   509.041412
   1394,  -876.306702,   459.450012,   481.753662
   1395,  -891.006531,   459.450012,   453.990509
   1396,  -904.827026,   459.450012,   425.779297
   1397,  -917.754639,   459.450012,   397.147888
   1398,  -929.776489,   459.450012,   368.124542
   1399,  -940.880798,   459.450012,   338.737915
   1400,  -951.056519,   459.450012,   309.016998
   1401,  -960.293701,   459.450012,   278.991119
   1402,  -968.583191,   459.450012,    248.68988
   1403,  -975.916748,   459.450012,   218.143234
   1404,  -982.287231,   459.450012,   187.381317
   1405,  -987.688354,   459.450012,   156.434464
   1406,  -992.114685,   459.450012,   125.333237
   1407,  -995.561951,   459.450012,   94.1083145
   1408,  -998.026733,   459.450012,   62.7905197
   1409,  -999.506531,   459.450012,    31.410759
   1410,   999.506531,        494.5,    31.410759
   1411,   998.026733,        494.5,   62.7905197
   1412,   995.561951,        494.5,   94.1083145
   1413,   992.114685,        494.5,   125.333237
   1414,   987.688354,        494.5,   156.434464
   1415,   982.287231,        494.5,   187.381317
   1416,   975.916748,        494.5,   218.143234
   1417,   968.583191,        494.5,    248.68988
   1418,   960.293701,        494.5,   278.991119
   1419,   951.056519,        494.5,   309.016998
   1420,   940.880798,        494.5,   338.737915
   1421,   929.776489,        494.5,   368.124542
   1422,   917.754639,        494.5,   397.147888
   1423,   904.827026,        494.5,   425.779297
   1424,   891.006531,        494.5,   453.990509
   1425,   876.306702,        494.5,   481.753662
   1426,   860.742004,        494.5,   509.041412
   1427,   844.327942,        494.5,   535.826782
   1428,   827.080566,        494.5,   562.083374
   1429,   809.016968,        494.5,   587.785278
   1430,   790.155029,        494.5,   612.907043
   1431,   770.513245,        494.5,   637.424011
   1432,   750.111084,        494.5,    661.31189
   1433,   728.968628,        494.5,   684.547119
   1434,   707.106812,        494.5,   707.106812
   1435,   684.547119,        494.5,   728.968628
   1436,    661.31189,        494.5,   750.111084
   1437,   637.424011,        494.5,   770.513245
   1438,   612.907043,        494.5,   790.155029
   1439,   587.785278,        494.5,   809.016968
   1440,   562.083374,        494.5,   827.080566
   1441,   535.826782,        494.5,   844.327942
   1442,   509.041412,        494.5,   860.742004
   1443,   481.753662,        494.5,   876.306702
   1444,   453.990509,        494.5,   891.006531
   1445,   425.779297,        494.5,   904.827026
   1446,   397.147888,        494.5,   917.754639
   1447,   368.124542,        494.5,   929.776489
   1448,   338.737915,        494.5,   940.880798
   1449,   309.016998,        494.5,   951.056519
   1450,   278.991119,        494.5,   960.293701
   1451,    248.68988,        494.5,   968.583191
   1452,   218.143234,        494.5,   975.916748
   1453,   187.381317,        494.5,   982.287231
   1454,   156.434464,        494.5,   987.688354
   1455,   125.333237,        494.5,   992.114685
   1456,   94.1083145,        494.5,   995.561951
   1457,   62.7905197,        494.5,   998.026733
   1458,    31.410759,        494.5,   999.506531
   1459,           0.,        494.5,        1000.
   1460,   -31.410759,        494.5,   999.506531
   1461,  -62.7905197,        494.5,   998.026733
   1462,  -94.1083145,        494.5,   995.561951
   1463,  -125.333237,        494.5,   992.114685
   1464,  -156.434464,        494.5,   987.688354
   1465,  -187.381317,        494.5,   982.287231
   1466,  -218.143234,        494.5,   975.916748
   1467,   -248.68988,        494.5,   968.583191
   1468,  -278.991119,        494.5,   960.293701
   1469,  -309.016998,        494.5,   951.056519
   1470,  -338.737915,        494.5,   940.880798
   1471,  -368.124542,        494.5,   929.776489
   1472,  -397.147888,        494.5,   917.754639
   1473,  -425.779297,        494.5,   904.827026
   1474,  -453.990509,        494.5,   891.006531
   1475,  -481.753662,        494.5,   876.306702
   1476,  -509.041412,        494.5,   860.742004
   1477,  -535.826782,        494.5,   844.327942
   1478,  -562.083374,        494.5,   827.080566
   1479,  -587.785278,        494.5,   809.016968
   1480,  -612.907043,        494.5,   790.155029
   1481,  -637.424011,        494.5,   770.513245
   1482,   -661.31189,        494.5,   750.111084
   1483,  -684.547119,        494.5,   728.968628
   1484,  -707.106812,        494.5,   707.106812
   1485,  -728.968628,        494.5,   684.547119
   1486,  -750.111084,        494.5,    661.31189
   1487,  -770.513245,        494.5,   637.424011
   1488,  -790.155029,        494.5,   612.907043
   1489,  -809.016968,        494.5,   587.785278
   1490,  -827.080566,        494.5,   562.083374
   1491,  -844.327942,        494.5,   535.826782
   1492,  -860.742004,        494.5,   509.041412
   1493,  -876.306702,        494.5,   481.753662
   1494,  -891.006531,        494.5,   453.990509
   1495,  -904.827026,        494.5,   425.779297
   1496,  -917.754639,        494.5,   397.147888
   1497,  -929.776489,        494.5,   368.124542
   1498,  -940.880798,        494.5,   338.737915
   1499,  -951.056519,        494.5,   309.016998
   1500,  -960.293701,        494.5,   278.991119
   1501,  -968.583191,        494.5,    248.68988
   1502,  -975.916748,        494.5,   218.143234
   1503,  -982.287231,        494.5,   187.381317
   1504,  -987.688354,        494.5,   156.434464
   1505,  -992.114685,        494.5,   125.333237
   1506,  -995.561951,        494.5,   94.1083145
   1507,  -998.026733,        494.5,   62.7905197
   1508,  -999.506531,        494.5,    31.410759
   1509,   999.506531,   529.549988,    31.410759
   1510,   998.026733,   529.549988,   62.7905197
   1511,   995.561951,   529.549988,   94.1083145
   1512,   992.114685,   529.549988,   125.333237
   1513,   987.688354,   529.549988,   156.434464
   1514,   982.287231,   529.549988,   187.381317
   1515,   975.916748,   529.549988,   218.143234
   1516,   968.583191,   529.549988,    248.68988
   1517,   960.293701,   529.549988,   278.991119
   1518,   951.056519,   529.549988,   309.016998
   1519,   940.880798,   529.549988,   338.737915
   1520,   929.776489,   529.549988,   368.124542
   1521,   917.754639,   529.549988,   397.147888
   1522,   904.827026,   529.549988,   425.779297
   1523,   891.006531,   529.549988,   453.990509
   1524,   876.306702,   529.549988,   481.753662
   1525,   860.742004,   529.549988,   509.041412
   1526,   844.327942,   529.549988,   535.826782
   1527,   827.080566,   529.549988,   562.083374
   1528,   809.016968,   529.549988,   587.785278
   1529,   790.155029,   529.549988,   612.907043
   1530,   770.513245,   529.549988,   637.424011
   1531,   750.111084,   529.549988,    661.31189
   1532,   728.968628,   529.549988,   684.547119
   1533,   707.106812,   529.549988,   707.106812
   1534,   684.547119,   529.549988,   728.968628
   1535,    661.31189,   529.549988,   750.111084
   1536,   637.424011,   529.549988,   770.513245
   1537,   612.907043,   529.549988,   790.155029
   1538,   587.785278,   529.549988,   809.016968
   1539,   562.083374,   529.549988,   827.080566
   1540,   535.826782,   529.549988,   844.327942
   1541,   509.041412,   529.549988,   860.742004
   1542,   481.753662,   529.549988,   876.306702
   1543,   453.990509,   529.549988,   891.006531
   1544,   425.779297,   529.549988,   904.827026
   1545,   397.147888,   529.549988,   917.754639
   1546,   368.124542,   529.549988,   929.776489
   1547,   338.737915,   529.549988,   940.880798
   1548,   309.016998,   529.549988,   951.056519
   1549,   278.991119,   529.549988,   960.293701
   1550,    248.68988,   529.549988,   968.583191
   1551,   218.143234,   529.549988,   975.916748
   1552,   187.381317,   529.549988,   982.287231
   1553,   156.434464,   529.549988,   987.688354
   1554,   125.333237,   529.549988,   992.114685
   1555,   94.1083145,   529.549988,   995.561951
   1556,   62.7905197,   529.549988,   998.026733
   1557,    31.410759,   529.549988,   999.506531
   1558,           0.,   529.549988,        1000.
   1559,   -31.410759,   529.549988,   999.506531
   1560,  -62.7905197,   529.549988,   998.026733
   1561,  -94.1083145,   529.549988,   995.561951
   1562,  -125.333237,   529.549988,   992.114685
   1563,  -156.434464,   529.549988,   987.688354
   1564,  -187.381317,   529.549988,   982.287231
   1565,  -218.143234,   529.549988,   975.916748
   1566,   -248.68988,   529.549988,   968.583191
   1567,  -278.991119,   529.549988,   960.293701
   1568,  -309.016998,   529.549988,   951.056519
   1569,  -338.737915,   529.549988,   940.880798
   1570,  -368.124542,   529.549988,   929.776489
   1571,  -397.147888,   529.549988,   917.754639
   1572,  -425.779297,   529.549988,   904.827026
   1573,  -453.990509,   529.549988,   891.006531
   1574,  -481.753662,   529.549988,   876.306702
   1575,  -509.041412,   529.549988,   860.742004
   1576,  -535.826782,   529.549988,   844.327942
   1577,  -562.083374,   529.549988,   827.080566
   1578,  -587.785278,   529.549988,   809.016968
   1579,  -612.907043,   529.549988,   790.155029
   1580,  -637.424011,   529.549988,   770.513245
   1581,   -661.31189,   529.549988,   750.111084
   1582,  -684.547119,   529.549988,   728.968628
   1583,  -707.106812,   529.549988,   707.106812
   1584,  -728.968628,   529.549988,   684.547119
   1585,  -750.111084,   529.549988,    661.31189
   1586,  -770.513245,   529.549988,   637.424011
   1587,  -790.155029,   529.549988,   612.907043
   1588,  -809.016968,   529.549988,   587.785278
   1589,  -827.080566,   529.549988,   562.083374
   1590,  -844.327942,   529.549988,   535.826782
   1591,  -860.742004,   529.549988,   509.041412
   1592,  -876.306702,   529.549988,   481.753662
   1593,  -891.006531,   529.549988,   453.990509
   1594,  -904.827026,   529.549988,   425.779297
   1595,  -917.754639,   529.549988,   397.147888
   1596,  -929.776489,   529.549988,   368.124542
   1597,  -940.880798,   529.549988,   338.737915
   1598,  -951.056519,   529.549988,   309.016998
   1599,  -960.293701,   529.549988,   278.991119
   1600,  -968.583191,   529.549988,    248.68988
   1601,  -975.916748,   529.549988,   218.143234
   1602,  -982.287231,   529.549988,   187.381317
   1603,  -987.688354,   529.549988,   156.434464
   1604,  -992.114685,   529.549988,   125.333237
   1605,  -995.561951,   529.549988,   94.1083145
   1606,  -998.026733,   529.549988,   62.7905197
   1607,  -999.506531,   529.549988,    31.410759
   1608,   999.506531,   564.599976,    31.410759
   1609,   998.026733,   564.599976,   62.7905197
   1610,   995.561951,   564.599976,   94.1083145
   1611,   992.114685,   564.599976,   125.333237
   1612,   987.688354,   564.599976,   156.434464
   1613,   982.287231,   564.599976,   187.381317
   1614,   975.916748,   564.599976,   218.143234
   1615,   968.583191,   564.599976,    248.68988
   1616,   960.293701,   564.599976,   278.991119
   1617,   951.056519,   564.599976,   309.016998
   1618,   940.880798,   564.599976,   338.737915
   1619,   929.776489,   564.599976,   368.124542
   1620,   917.754639,   564.599976,   397.147888
   1621,   904.827026,   564.599976,   425.779297
   1622,   891.006531,   564.599976,   453.990509
   1623,   876.306702,   564.599976,   481.753662
   1624,   860.742004,   564.599976,   509.041412
   1625,   844.327942,   564.599976,   535.826782
   1626,   827.080566,   564.599976,   562.083374
   1627,   809.016968,   564.599976,   587.785278
   1628,   790.155029,   564.599976,   612.907043
   1629,   770.513245,   564.599976,   637.424011
   1630,   750.111084,   564.599976,    661.31189
   1631,   728.968628,   564.599976,   684.547119
   1632,   707.106812,   564.599976,   707.106812
   1633,   684.547119,   564.599976,   728.968628
   1634,    661.31189,   564.599976,   750.111084
   1635,   637.424011,   564.599976,   770.513245
   1636,   612.907043,   564.599976,   790.155029
   1637,   587.785278,   564.599976,   809.016968
   1638,   562.083374,   564.599976,   827.080566
   1639,   535.826782,   564.599976,   844.327942
   1640,   509.041412,   564.599976,   860.742004
   1641,   481.753662,   564.599976,   876.306702
   1642,   453.990509,   564.599976,   891.006531
   1643,   425.779297,   564.599976,   904.827026
   1644,   397.147888,   564.599976,   917.754639
   1645,   368.124542,   564.599976,   929.776489
   1646,   338.737915,   564.599976,   940.880798
   1647,   309.016998,   564.599976,   951.056519
   1648,   278.991119,   564.599976,   960.293701
   1649,    248.68988,   564.599976,   968.583191
   1650,   218.143234,   564.599976,   975.916748
   1651,   187.381317,   564.599976,   982.287231
   1652,   156.434464,   564.599976,   987.688354
   1653,   125.333237,   564.599976,   992.114685
   1654,   94.1083145,   564.599976,   995.561951
   1655,   62.7905197,   564.599976,   998.026733
   1656,    31.410759,   564.599976,   999.506531
   1657,           0.,   564.599976,        1000.
   1658,   -31.410759,   564.599976,   999.506531
   1659,  -62.7905197,   564.599976,   998.026733
   1660,  -94.1083145,   564.599976,   995.561951
   1661,  -125.333237,   564.599976,   992.114685
   1662,  -156.434464,   564.599976,   987.688354
   1663,  -187.381317,   564.599976,   982.287231
   1664,  -218.143234,   564.599976,   975.916748
   1665,   -248.68988,   564.599976,   968.583191
   1666,  -278.991119,   564.599976,   960.293701
   1667,  -309.016998,   564.599976,   951.056519
   1668,  -338.737915,   564.599976,   940.880798
   1669,  -368.124542,   564.599976,   929.776489
   1670,  -397.147888,   564.599976,   917.754639
   1671,  -425.779297,   564.599976,   904.827026
   1672,  -453.990509,   564.599976,   891.006531
   1673,  -481.753662,   564.599976,   876.306702
   1674,  -509.041412,   564.599976,   860.742004
   1675,  -535.826782,   564.599976,   844.327942
   1676,  -562.083374,   564.599976,   827.080566
   1677,  -587.785278,   564.599976,   809.016968
   1678,  -612.907043,   564.599976,   790.155029
   1679,  -637.424011,   564.599976,   770.513245
   1680,   -661.31189,   564.599976,   750.111084
   1681,  -684.547119,   564.599976,   728.968628
   1682,  -707.106812,   564.599976,   707.106812
   1683,  -728.968628,   564.599976,   684.547119
   1684,  -750.111084,   564.599976,    661.31189
   1685,  -770.513245,   564.599976,   637.424011
   1686,  -790.155029,   564.599976,   612.907043
   1687,  -809.016968,   564.599976,   587.785278
   1688,  -827.080566,   564.599976,   562.083374
   1689,  -844.327942,   564.599976,   535.826782
   1690,  -860.742004,   564.599976,   509.041412
   1691,  -876.306702,   564.599976,   481.753662
   1692,  -891.006531,   564.599976,   453.990509
   1693,  -904.827026,   564.599976,   425.779297
   1694,  -917.754639,   564.599976,   397.147888
   1695,  -929.776489,   564.599976,   368.124542
   1696,  -940.880798,   564.599976,   338.737915
   1697,  -951.056519,   564.599976,   309.016998
   1698,  -960.293701,   564.599976,   278.991119
   1699,  -968.583191,   564.599976,    248.68988
   1700,  -975.916748,   564.599976,   218.143234
   1701,  -982.287231,   564.599976,   187.381317
   1702,  -987.688354,   564.599976,   156.434464
   1703,  -992.114685,   564.599976,   125.333237
   1704,  -995.561951,   564.599976,   94.1083145
   1705,  -998.026733,   564.599976,   62.7905197
   1706,  -999.506531,   564.599976,    31.410759
   1707,   999.506531,   599.650024,    31.410759
   1708,   998.026733,   599.650024,   62.7905197
   1709,   995.561951,   599.650024,   94.1083145
   1710,   992.114685,   599.650024,   125.333237
   1711,   987.688354,   599.650024,   156.434464
   1712,   982.287231,   599.650024,   187.381317
   1713,   975.916748,   599.650024,   218.143234
   1714,   968.583191,   599.650024,    248.68988
   1715,   960.293701,   599.650024,   278.991119
   1716,   951.056519,   599.650024,   309.016998
   1717,   940.880798,   599.650024,   338.737915
   1718,   929.776489,   599.650024,   368.124542
   1719,   917.754639,   599.650024,   397.147888
   1720,   904.827026,   599.650024,   425.779297
   1721,   891.006531,   599.650024,   453.990509
   1722,   876.306702,   599.650024,   481.753662
   1723,   860.742004,   599.650024,   509.041412
   1724,   844.327942,   599.650024,   535.826782
   1725,   827.080566,   599.650024,   562.083374
   1726,   809.016968,   599.650024,   587.785278
   1727,   790.155029,   599.650024,   612.907043
   1728,   770.513245,   599.650024,   637.424011
   1729,   750.111084,   599.650024,    661.31189
   1730,   728.968628,   599.650024,   684.547119
   1731,   707.106812,   599.650024,   707.106812
   1732,   684.547119,   599.650024,   728.968628
   1733,    661.31189,   599.650024,   750.111084
   1734,   637.424011,   599.650024,   770.513245
   1735,   612.907043,   599.650024,   790.155029
   1736,   587.785278,   599.650024,   809.016968
   1737,   562.083374,   599.650024,   827.080566
   1738,   535.826782,   599.650024,   844.327942
   1739,   509.041412,   599.650024,   860.742004
   1740,   481.753662,   599.650024,   876.306702
   1741,   453.990509,   599.650024,   891.006531
   1742,   425.779297,   599.650024,   904.827026
   1743,   397.147888,   599.650024,   917.754639
   1744,   368.124542,   599.650024,   929.776489
   1745,   338.737915,   599.650024,   940.880798
   1746,   309.016998,   599.650024,   951.056519
   1747,   278.991119,   599.650024,   960.293701
   1748,    248.68988,   599.650024,   968.583191
   1749,   218.143234,   599.650024,   975.916748
   1750,   187.381317,   599.650024,   982.287231
   1751,   156.434464,   599.650024,   987.688354
   1752,   125.333237,   599.650024,   992.114685
   1753,   94.1083145,   599.650024,   995.561951
   1754,   62.7905197,   599.650024,   998.026733
   1755,    31.410759,   599.650024,   999.506531
   1756,           0.,   599.650024,        1000.
   1757,   -31.410759,   599.650024,   999.506531
   1758,  -62.7905197,   599.650024,   998.026733
   1759,  -94.1083145,   599.650024,   995.561951
   1760,  -125.333237,   599.650024,   992.114685
   1761,  -156.434464,   599.650024,   987.688354
   1762,  -187.381317,   599.650024,   982.287231
   1763,  -218.143234,   599.650024,   975.916748
   1764,   -248.68988,   599.650024,   968.583191
   1765,  -278.991119,   599.650024,   960.293701
   1766,  -309.016998,   599.650024,   951.056519
   1767,  -338.737915,   599.650024,   940.880798
   1768,  -368.124542,   599.650024,   929.776489
   1769,  -397.147888,   599.650024,   917.754639
   1770,  -425.779297,   599.650024,   904.827026
   1771,  -453.990509,   599.650024,   891.006531
   1772,  -481.753662,   599.650024,   876.306702
   1773,  -509.041412,   599.650024,   860.742004
   1774,  -535.826782,   599.650024,   844.327942
   1775,  -562.083374,   599.650024,   827.080566
   1776,  -587.785278,   599.650024,   809.016968
   1777,  -612.907043,   599.650024,   790.155029
   1778,  -637.424011,   599.650024,   770.513245
   1779,   -661.31189,   599.650024,   750.111084
   1780,  -684.547119,   599.650024,   728.968628
   1781,  -707.106812,   599.650024,   707.106812
   1782,  -728.968628,   599.650024,   684.547119
   1783,  -750.111084,   599.650024,    661.31189
   1784,  -770.513245,   599.650024,   637.424011
   1785,  -790.155029,   599.650024,   612.907043
   1786,  -809.016968,   599.650024,   587.785278
   1787,  -827.080566,   599.650024,   562.083374
   1788,  -844.327942,   599.650024,   535.826782
   1789,  -860.742004,   599.650024,   509.041412
   1790,  -876.306702,   599.650024,   481.753662
   1791,  -891.006531,   599.650024,   453.990509
   1792,  -904.827026,   599.650024,   425.779297
   1793,  -917.754639,   599.650024,   397.147888
   1794,  -929.776489,   599.650024,   368.124542
   1795,  -940.880798,   599.650024,   338.737915
   1796,  -951.056519,   599.650024,   309.016998
   1797,  -960.293701,   599.650024,   278.991119
   1798,  -968.583191,   599.650024,    248.68988
   1799,  -975.916748,   599.650024,   218.143234
   1800,  -982.287231,   599.650024,   187.381317
   1801,  -987.688354,   599.650024,   156.434464
   1802,  -992.114685,   599.650024,   125.333237
   1803,  -995.561951,   599.650024,   94.1083145
   1804,  -998.026733,   599.650024,   62.7905197
   1805,  -999.506531,   599.650024,    31.410759
   1806,   999.506531,   634.700012,    31.410759
   1807,   998.026733,   634.700012,   62.7905197
   1808,   995.561951,   634.700012,   94.1083145
   1809,   992.114685,   634.700012,   125.333237
   1810,   987.688354,   634.700012,   156.434464
   1811,   982.287231,   634.700012,   187.381317
   1812,   975.916748,   634.700012,   218.143234
   1813,   968.583191,   634.700012,    248.68988
   1814,   960.293701,   634.700012,   278.991119
   1815,   951.056519,   634.700012,   309.016998
   1816,   940.880798,   634.700012,   338.737915
   1817,   929.776489,   634.700012,   368.124542
   1818,   917.754639,   634.700012,   397.147888
   1819,   904.827026,   634.700012,   425.779297
   1820,   891.006531,   634.700012,   453.990509
   1821,   876.306702,   634.700012,   481.753662
   1822,   860.742004,   634.700012,   509.041412
   1823,   844.327942,   634.700012,   535.826782
   1824,   827.080566,   634.700012,   562.083374
   1825,   809.016968,   634.700012,   587.785278
   1826,   790.155029,   634.700012,   612.907043
   1827,   770.513245,   634.700012,   637.424011
   1828,   750.111084,   634.700012,    661.31189
   1829,   728.968628,   634.700012,   684.547119
   1830,   707.106812,   634.700012,   707.106812
   1831,   684.547119,   634.700012,   728.968628
   1832,    661.31189,   634.700012,   750.111084
   1833,   637.424011,   634.700012,   770.513245
   1834,   612.907043,   634.700012,   790.155029
   1835,   587.785278,   634.700012,   809.016968
   1836,   562.083374,   634.700012,   827.080566
   1837,   535.826782,   634.700012,   844.327942
   1838,   509.041412,   634.700012,   860.742004
   1839,   481.753662,   634.700012,   876.306702
   1840,   453.990509,   634.700012,   891.006531
   1841,   425.779297,   634.700012,   904.827026
   1842,   397.147888,   634.700012,   917.754639
   1843,   368.124542,   634.700012,   929.776489
   1844,   338.737915,   634.700012,   940.880798
   1845,   309.016998,   634.700012,   951.056519
   1846,   278.991119,   634.700012,   960.293701
   1847,    248.68988,   634.700012,   968.583191
   1848,   218.143234,   634.700012,   975.916748
   1849,   187.381317,   634.700012,   982.287231
   1850,   156.434464,   634.700012,   987.688354
   1851,   125.333237,   634.700012,   992.114685
   1852,   94.1083145,   634.700012,   995.561951
   1853,   62.7905197,   634.700012,   998.026733
   1854,    31.410759,   634.700012,   999.506531
   1855,           0.,   634.700012,        1000.
   1856,   -31.410759,   634.700012,   999.506531
   1857,  -62.7905197,   634.700012,   998.026733
   1858,  -94.1083145,   634.700012,   995.561951
   1859,  -125.333237,   634.700012,   992.114685
   1860,  -156.434464,   634.700012,   987.688354
   1861,  -187.381317,   634.700012,   982.287231
   1862,  -218.143234,   634.700012,   975.916748
   1863,   -248.68988,   634.700012,   968.583191
   1864,  -278.991119,   634.700012,   960.293701
   1865,  -309.016998,   634.700012,   951.056519
   1866,  -338.737915,   634.700012,   940.880798
   1867,  -368.124542,   634.700012,   929.776489
   1868,  -397.147888,   634.700012,   917.754639
   1869,  -425.779297,   634.700012,   904.827026
   1870,  -453.990509,   634.700012,   891.006531
   1871,  -481.753662,   634.700012,   876.306702
   1872,  -509.041412,   634.700012,   860.742004
   1873,  -535.826782,   634.700012,   844.327942
   1874,  -562.083374,   634.700012,   827.080566
   1875,  -587.785278,   634.700012,   809.016968
   1876,  -612.907043,   634.700012,   790.155029
   1877,  -637.424011,   634.700012,   770.513245
   1878,   -661.31189,   634.700012,   750.111084
   1879,  -684.547119,   634.700012,   728.968628
   1880,  -707.106812,   634.700012,   707.106812
   1881,  -728.968628,   634.700012,   684.547119
   1882,  -750.111084,   634.700012,    661.31189
   1883,  -770.513245,   634.700012,   637.424011
   1884,  -790.155029,   634.700012,   612.907043
   1885,  -809.016968,   634.700012,   587.785278
   1886,  -827.080566,   634.700012,   562.083374
   1887,  -844.327942,   634.700012,   535.826782
   1888,  -860.742004,   634.700012,   509.041412
   1889,  -876.306702,   634.700012,   481.753662
   1890,  -891.006531,   634.700012,   453.990509
   1891,  -904.827026,   634.700012,   425.779297
   1892,  -917.754639,   634.700012,   397.147888
   1893,  -929.776489,   634.700012,   368.124542
   1894,  -940.880798,   634.700012,   338.737915
   1895,  -951.056519,   634.700012,   309.016998
   1896,  -960.293701,   634.700012,   278.991119
   1897,  -968.583191,   634.700012,    248.68988
   1898,  -975.916748,   634.700012,   218.143234
   1899,  -982.287231,   634.700012,   187.381317
   1900,  -987.688354,   634.700012,   156.434464
   1901,  -992.114685,   634.700012,   125.333237
   1902,  -995.561951,   634.700012,   94.1083145
   1903,  -998.026733,   634.700012,   62.7905197
   1904,  -999.506531,   634.700012,    31.410759
   1905,   999.506531,       669.75,    31.410759
   1906,   998.026733,       669.75,   62.7905197
   1907,   995.561951,       669.75,   94.1083145
   1908,   992.114685,       669.75,   125.333237
   1909,   987.688354,       669.75,   156.434464
   1910,   982.287231,       669.75,   187.381317
   1911,   975.916748,       669.75,   218.143234
   1912,   968.583191,       669.75,    248.68988
   1913,   960.293701,       669.75,   278.991119
   1914,   951.056519,       669.75,   309.016998
   1915,   940.880798,       669.75,   338.737915
   1916,   929.776489,       669.75,   368.124542
   1917,   917.754639,       669.75,   397.147888
   1918,   904.827026,       669.75,   425.779297
   1919,   891.006531,       669.75,   453.990509
   1920,   876.306702,       669.75,   481.753662
   1921,   860.742004,       669.75,   509.041412
   1922,   844.327942,       669.75,   535.826782
   1923,   827.080566,       669.75,   562.083374
   1924,   809.016968,       669.75,   587.785278
   1925,   790.155029,       669.75,   612.907043
   1926,   770.513245,       669.75,   637.424011
   1927,   750.111084,       669.75,    661.31189
   1928,   728.968628,       669.75,   684.547119
   1929,   707.106812,       669.75,   707.106812
   1930,   684.547119,       669.75,   728.968628
   1931,    661.31189,       669.75,   750.111084
   1932,   637.424011,       669.75,   770.513245
   1933,   612.907043,       669.75,   790.155029
   1934,   587.785278,       669.75,   809.016968
   1935,   562.083374,       669.75,   827.080566
   1936,   535.826782,       669.75,   844.327942
   1937,   509.041412,       669.75,   860.742004
   1938,   481.753662,       669.75,   876.306702
   1939,   453.990509,       669.75,   891.006531
   1940,   425.779297,       669.75,   904.827026
   1941,   397.147888,       669.75,   917.754639
   1942,   368.124542,       669.75,   929.776489
   1943,   338.737915,       669.75,   940.880798
   1944,   309.016998,       669.75,   951.056519
   1945,   278.991119,       669.75,   960.293701
   1946,    248.68988,       669.75,   968.583191
   1947,   218.143234,       669.75,   975.916748
   1948,   187.381317,       669.75,   982.287231
   1949,   156.434464,       669.75,   987.688354
   1950,   125.333237,       669.75,   992.114685
   1951,   94.1083145,       669.75,   995.561951
   1952,   62.7905197,       669.75,   998.026733
   1953,    31.410759,       669.75,   999.506531
   1954,           0.,       669.75,        1000.
   1955,   -31.410759,       669.75,   999.506531
   1956,  -62.7905197,       669.75,   998.026733
   1957,  -94.1083145,       669.75,   995.561951
   1958,  -125.333237,       669.75,   992.114685
   1959,  -156.434464,       669.75,   987.688354
   1960,  -187.381317,       669.75,   982.287231
   1961,  -218.143234,       669.75,   975.916748
   1962,   -248.68988,       669.75,   968.583191
   1963,  -278.991119,       669.75,   960.293701
   1964,  -309.016998,       669.75,   951.056519
   1965,  -338.737915,       669.75,   940.880798
   1966,  -368.124542,       669.75,   929.776489
   1967,  -397.147888,       669.75,   917.754639
   1968,  -425.779297,       669.75,   904.827026
   1969,  -453.990509,       669.75,   891.006531
   1970,  -481.753662,       669.75,   876.306702
   1971,  -509.041412,       669.75,   860.742004
   1972,  -535.826782,       669.75,   844.327942
   1973,  -562.083374,       669.75,   827.080566
   1974,  -587.785278,       669.75,   809.016968
   1975,  -612.907043,       669.75,   790.155029
   1976,  -637.424011,       669.75,   770.513245
   1977,   -661.31189,       669.75,   750.111084
   1978,  -684.547119,       669.75,   728.968628
   1979,  -707.106812,       669.75,   707.106812
   1980,  -728.968628,       669.75,   684.547119
   1981,  -750.111084,       669.75,    661.31189
   1982,  -770.513245,       669.75,   637.424011
   1983,  -790.155029,       669.75,   612.907043
   1984,  -809.016968,       669.75,   587.785278
   1985,  -827.080566,       669.75,   562.083374
   1986,  -844.327942,       669.75,   535.826782
   1987,  -860.742004,       669.75,   509.041412
   1988,  -876.306702,       669.75,   481.753662
   1989,  -891.006531,       669.75,   453.990509
   1990,  -904.827026,       669.75,   425.779297
   1991,  -917.754639,       669.75,   397.147888
   1992,  -929.776489,       669.75,   368.124542
   1993,  -940.880798,       669.75,   338.737915
   1994,  -951.056519,       669.75,   309.016998
   1995,  -960.293701,       669.75,   278.991119
   1996,  -968.583191,       669.75,    248.68988
   1997,  -975.916748,       669.75,   218.143234
   1998,  -982.287231,       669.75,   187.381317
   1999,  -987.688354,       669.75,   156.434464
   2000,  -992.114685,       669.75,   125.333237
   2001,  -995.561951,       669.75,   94.1083145
   2002,  -998.026733,       669.75,   62.7905197
   2003,  -999.506531,       669.75,    31.410759
   2004,   999.506531,   704.799988,    31.410759
   2005,   998.026733,   704.799988,   62.7905197
   2006,   995.561951,   704.799988,   94.1083145
   2007,   992.114685,   704.799988,   125.333237
   2008,   987.688354,   704.799988,   156.434464
   2009,   982.287231,   704.799988,   187.381317
   2010,   975.916748,   704.799988,   218.143234
   2011,   968.583191,   704.799988,    248.68988
   2012,   960.293701,   704.799988,   278.991119
   2013,   951.056519,   704.799988,   309.016998
   2014,   940.880798,   704.799988,   338.737915
   2015,   929.776489,   704.799988,   368.124542
   2016,   917.754639,   704.799988,   397.147888
   2017,   904.827026,   704.799988,   425.779297
   2018,   891.006531,   704.799988,   453.990509
   2019,   876.306702,   704.799988,   481.753662
   2020,   860.742004,   704.799988,   509.041412
   2021,   844.327942,   704.799988,   535.826782
   2022,   827.080566,   704.799988,   562.083374
   2023,   809.016968,   704.799988,   587.785278
   2024,   790.155029,   704.799988,   612.907043
   2025,   770.513245,   704.799988,   637.424011
   2026,   750.111084,   704.799988,    661.31189
   2027,   728.968628,   704.799988,   684.547119
   2028,   707.106812,   704.799988,   707.106812
   2029,   684.547119,   704.799988,   728.968628
   2030,    661.31189,   704.799988,   750.111084
   2031,   637.424011,   704.799988,   770.513245
   2032,   612.907043,   704.799988,   790.155029
   2033,   587.785278,   704.799988,   809.016968
   2034,   562.083374,   704.799988,   827.080566
   2035,   535.826782,   704.799988,   844.327942
   2036,   509.041412,   704.799988,   860.742004
   2037,   481.753662,   704.799988,   876.306702
   2038,   453.990509,   704.799988,   891.006531
   2039,   425.779297,   704.799988,   904.827026
   2040,   397.147888,   704.799988,   917.754639
   2041,   368.124542,   704.799988,   929.776489
   2042,   338.737915,   704.799988,   940.880798
   2043,   309.016998,   704.799988,   951.056519
   2044,   278.991119,   704.799988,   960.293701
   2045,    248.68988,   704.799988,   968.583191
   2046,   218.143234,   704.799988,   975.916748
   2047,   187.381317,   704.799988,   982.287231
   2048,   156.434464,   704.799988,   987.688354
   2049,   125.333237,   704.799988,   992.114685
   2050,   94.1083145,   704.799988,   995.561951
   2051,   62.7905197,   704.799988,   998.026733
   2052,    31.410759,   704.799988,   999.506531
   2053,           0.,   704.799988,        1000.
   2054,   -31.410759,   704.799988,   999.506531
   2055,  -62.7905197,   704.799988,   998.026733
   2056,  -94.1083145,   704.799988,   995.561951
   2057,  -125.333237,   704.799988,   992.114685
   2058,  -156.434464,   704.799988,   987.688354
   2059,  -187.381317,   704.799988,   982.287231
   2060,  -218.143234,   704.799988,   975.916748
   2061,   -248.68988,   704.799988,   968.583191
   2062,  -278.991119,   704.799988,   960.293701
   2063,  -309.016998,   704.799988,   951.056519
   2064,  -338.737915,   704.799988,   940.880798
   2065,  -368.124542,   704.799988,   929.776489
   2066,  -397.147888,   704.799988,   917.754639
   2067,  -425.779297,   704.799988,   904.827026
   2068,  -453.990509,   704.799988,   891.006531
   2069,  -481.753662,   704.799988,   876.306702
   2070,  -509.041412,   704.799988,   860.742004
   2071,  -535.826782,   704.799988,   844.327942
   2072,  -562.083374,   704.799988,   827.080566
   2073,  -587.785278,   704.799988,   809.016968
   2074,  -612.907043,   704.799988,   790.155029
   2075,  -637.424011,   704.799988,   770.513245
   2076,   -661.31189,   704.799988,   750.111084
   2077,  -684.547119,   704.799988,   728.968628
   2078,  -707.106812,   704.799988,   707.106812
   2079,  -728.968628,   704.799988,   684.547119
   2080,  -750.111084,   704.799988,    661.31189
   2081,  -770.513245,   704.799988,   637.424011
   2082,  -790.155029,   704.799988,   612.907043
   2083,  -809.016968,   704.799988,   587.785278
   2084,  -827.080566,   704.799988,   562.083374
   2085,  -844.327942,   704.799988,   535.826782
   2086,  -860.742004,   704.799988,   509.041412
   2087,  -876.306702,   704.799988,   481.753662
   2088,  -891.006531,   704.799988,   453.990509
   2089,  -904.827026,   704.799988,   425.779297
   2090,  -917.754639,   704.799988,   397.147888
   2091,  -929.776489,   704.799988,   368.124542
   2092,  -940.880798,   704.799988,   338.737915
   2093,  -951.056519,   704.799988,   309.016998
   2094,  -960.293701,   704.799988,   278.991119
   2095,  -968.583191,   704.799988,    248.68988
   2096,  -975.916748,   704.799988,   218.143234
   2097,  -982.287231,   704.799988,   187.381317
   2098,  -987.688354,   704.799988,   156.434464
   2099,  -992.114685,   704.799988,   125.333237
   2100,  -995.561951,   704.799988,   94.1083145
   2101,  -998.026733,   704.799988,   62.7905197
   2102,  -999.506531,   704.799988,    31.410759
   2103,   999.506531,   739.849976,    31.410759
   2104,   998.026733,   739.849976,   62.7905197
   2105,   995.561951,   739.849976,   94.1083145
   2106,   992.114685,   739.849976,   125.333237
   2107,   987.688354,   739.849976,   156.434464
   2108,   982.287231,   739.849976,   187.381317
   2109,   975.916748,   739.849976,   218.143234
   2110,   968.583191,   739.849976,    248.68988
   2111,   960.293701,   739.849976,   278.991119
   2112,   951.056519,   739.849976,   309.016998
   2113,   940.880798,   739.849976,   338.737915
   2114,   929.776489,   739.849976,   368.124542
   2115,   917.754639,   739.849976,   397.147888
   2116,   904.827026,   739.849976,   425.779297
   2117,   891.006531,   739.849976,   453.990509
   2118,   876.306702,   739.849976,   481.753662
   2119,   860.742004,   739.849976,   509.041412
   2120,   844.327942,   739.849976,   535.826782
   2121,   827.080566,   739.849976,   562.083374
   2122,   809.016968,   739.849976,   587.785278
   2123,   790.155029,   739.849976,   612.907043
   2124,   770.513245,   739.849976,   637.424011
   2125,   750.111084,   739.849976,    661.31189
   2126,   728.968628,   739.849976,   684.547119
   2127,   707.106812,   739.849976,   707.106812
   2128,   684.547119,   739.849976,   728.968628
   2129,    661.31189,   739.849976,   750.111084
   2130,   637.424011,   739.849976,   770.513245
   2131,   612.907043,   739.849976,   790.155029
   2132,   587.785278,   739.849976,   809.016968
   2133,   562.083374,   739.849976,   827.080566
   2134,   535.826782,   739.849976,   844.327942
   2135,   509.041412,   739.849976,   860.742004
   2136,   481.753662,   739.849976,   876.306702
   2137,   453.990509,   739.849976,   891.006531
   2138,   425.779297,   739.849976,   904.827026
   2139,   397.147888,   739.849976,   917.754639
   2140,   368.124542,   739.849976,   929.776489
   2141,   338.737915,   739.849976,   940.880798
   2142,   309.016998,   739.849976,   951.056519
   2143,   278.991119,   739.849976,   960.293701
   2144,    248.68988,   739.849976,   968.583191
   2145,   218.143234,   739.849976,   975.916748
   2146,   187.381317,   739.849976,   982.287231
   2147,   156.434464,   739.849976,   987.688354
   2148,   125.333237,   739.849976,   992.114685
   2149,   94.1083145,   739.849976,   995.561951
   2150,   62.7905197,   739.849976,   998.026733
   2151,    31.410759,   739.849976,   999.506531
   2152,           0.,   739.849976,        1000.
   2153,   -31.410759,   739.849976,   999.506531
   2154,  -62.7905197,   739.849976,   998.026733
   2155,  -94.1083145,   739.849976,   995.561951
   2156,  -125.333237,   739.849976,   992.114685
   2157,  -156.434464,   739.849976,   987.688354
   2158,  -187.381317,   739.849976,   982.287231
   2159,  -218.143234,   739.849976,   975.916748
   2160,   -248.68988,   739.849976,   968.583191
   2161,  -278.991119,   739.849976,   960.293701
   2162,  -309.016998,   739.849976,   951.056519
   2163,  -338.737915,   739.849976,   940.880798
   2164,  -368.124542,   739.849976,   929.776489
   2165,  -397.147888,   739.849976,   917.754639
   2166,  -425.779297,   739.849976,   904.827026
   2167,  -453.990509,   739.849976,   891.006531
   2168,  -481.753662,   739.849976,   876.306702
   2169,  -509.041412,   739.849976,   860.742004
   2170,  -535.826782,   739.849976,   844.327942
   2171,  -562.083374,   739.849976,   827.080566
   2172,  -587.785278,   739.849976,   809.016968
   2173,  -612.907043,   739.849976,   790.155029
   2174,  -637.424011,   739.849976,   770.513245
   2175,   -661.31189,   739.849976,   750.111084
   2176,  -684.547119,   739.849976,   728.968628
   2177,  -707.106812,   739.849976,   707.106812
   2178,  -728.968628,   739.849976,   684.547119
   2179,  -750.111084,   739.849976,    661.31189
   2180,  -770.513245,   739.849976,   637.424011
   2181,  -790.155029,   739.849976,   612.907043
   2182,  -809.016968,   739.849976,   587.785278
   2183,  -827.080566,   739.849976,   562.083374
   2184,  -844.327942,   739.849976,   535.826782
   2185,  -860.742004,   739.849976,   509.041412
   2186,  -876.306702,   739.849976,   481.753662
   2187,  -891.006531,   739.849976,   453.990509
   2188,  -904.827026,   739.849976,   425.779297
   2189,  -917.754639,   739.849976,   397.147888
   2190,  -929.776489,   739.849976,   368.124542
   2191,  -940.880798,   739.849976,   338.737915
   2192,  -951.056519,   739.849976,   309.016998
   2193,  -960.293701,   739.849976,   278.991119
   2194,  -968.583191,   739.849976,    248.68988
   2195,  -975.916748,   739.849976,   218.143234
   2196,  -982.287231,   739.849976,   187.381317
   2197,  -987.688354,   739.849976,   156.434464
   2198,  -992.114685,   739.849976,   125.333237
   2199,  -995.561951,   739.849976,   94.1083145
   2200,  -998.026733,   739.849976,   62.7905197
   2201,  -999.506531,   739.849976,    31.410759
   2202,   999.506531,   774.900024,    31.410759
   2203,   998.026733,   774.900024,   62.7905197
   2204,   995.561951,   774.900024,   94.1083145
   2205,   992.114685,   774.900024,   125.333237
   2206,   987.688354,   774.900024,   156.434464
   2207,   982.287231,   774.900024,   187.381317
   2208,   975.916748,   774.900024,   218.143234
   2209,   968.583191,   774.900024,    248.68988
   2210,   960.293701,   774.900024,   278.991119
   2211,   951.056519,   774.900024,   309.016998
   2212,   940.880798,   774.900024,   338.737915
   2213,   929.776489,   774.900024,   368.124542
   2214,   917.754639,   774.900024,   397.147888
   2215,   904.827026,   774.900024,   425.779297
   2216,   891.006531,   774.900024,   453.990509
   2217,   876.306702,   774.900024,   481.753662
   2218,   860.742004,   774.900024,   509.041412
   2219,   844.327942,   774.900024,   535.826782
   2220,   827.080566,   774.900024,   562.083374
   2221,   809.016968,   774.900024,   587.785278
   2222,   790.155029,   774.900024,   612.907043
   2223,   770.513245,   774.900024,   637.424011
   2224,   750.111084,   774.900024,    661.31189
   2225,   728.968628,   774.900024,   684.547119
   2226,   707.106812,   774.900024,   707.106812
   2227,   684.547119,   774.900024,   728.968628
   2228,    661.31189,   774.900024,   750.111084
   2229,   637.424011,   774.900024,   770.513245
   2230,   612.907043,   774.900024,   790.155029
   2231,   587.785278,   774.900024,   809.016968
   2232,   562.083374,   774.900024,   827.080566
   2233,   535.826782,   774.900024,   844.327942
   2234,   509.041412,   774.900024,   860.742004
   2235,   481.753662,   774.900024,   876.306702
   2236,   453.990509,   774.900024,   891.006531
   2237,   425.779297,   774.900024,   904.827026
   2238,   397.147888,   774.900024,   917.754639
   2239,   368.124542,   774.900024,   929.776489
   2240,   338.737915,   774.900024,   940.880798
   2241,   309.016998,   774.900024,   951.056519
   2242,   278.991119,   774.900024,   960.293701
   2243,    248.68988,   774.900024,   968.583191
   2244,   218.143234,   774.900024,   975.916748
   2245,   187.381317,   774.900024,   982.287231
   2246,   156.434464,   774.900024,   987.688354
   2247,   125.333237,   774.900024,   992.114685
   2248,   94.1083145,   774.900024,   995.561951
   2249,   62.7905197,   774.900024,   998.026733
   2250,    31.410759,   774.900024,   999.506531
   2251,           0.,   774.900024,        1000.
   2252,   -31.410759,   774.900024,   999.506531
   2253,  -62.7905197,   774.900024,   998.026733
   2254,  -94.1083145,   774.900024,   995.561951
   2255,  -125.333237,   774.900024,   992.114685
   2256,  -156.434464,   774.900024,   987.688354
   2257,  -187.381317,   774.900024,   982.287231
   2258,  -218.143234,   774.900024,   975.916748
   2259,   -248.68988,   774.900024,   968.583191
   2260,  -278.991119,   774.900024,   960.293701
   2261,  -309.016998,   774.900024,   951.056519
   2262,  -338.737915,   774.900024,   940.880798
   2263,  -368.124542,   774.900024,   929.776489
   2264,  -397.147888,   774.900024,   917.754639
   2265,  -425.779297,   774.900024,   904.827026
   2266,  -453.990509,   774.900024,   891.006531
   2267,  -481.753662,   774.900024,   876.306702
   2268,  -509.041412,   774.900024,   860.742004
   2269,  -535.826782,   774.900024,   844.327942
   2270,  -562.083374,   774.900024,   827.080566
   2271,  -587.785278,   774.900024,   809.016968
   2272,  -612.907043,   774.900024,   790.155029
   2273,  -637.424011,   774.900024,   770.513245
   2274,   -661.31189,   774.900024,   750.111084
   2275,  -684.547119,   774.900024,   728.968628
   2276,  -707.106812,   774.900024,   707.106812
   2277,  -728.968628,   774.900024,   684.547119
   2278,  -750.111084,   774.900024,    661.31189
   2279,  -770.513245,   774.900024,   637.424011
   2280,  -790.155029,   774.900024,   612.907043
   2281,  -809.016968,   774.900024,   587.785278
   2282,  -827.080566,   774.900024,   562.083374
   2283,  -844.327942,   774.900024,   535.826782
   2284,  -860.742004,   774.900024,   509.041412
   2285,  -876.306702,   774.900024,   481.753662
   2286,  -891.006531,   774.900024,   453.990509
   2287,  -904.827026,   774.900024,   425.779297
   2288,  -917.754639,   774.900024,   397.147888
   2289,  -929.776489,   774.900024,   368.124542
   2290,  -940.880798,   774.900024,   338.737915
   2291,  -951.056519,   774.900024,   309.016998
   2292,  -960.293701,   774.900024,   278.991119
   2293,  -968.583191,   774.900024,    248.68988
   2294,  -975.916748,   774.900024,   218.143234
   2295,  -982.287231,   774.900024,   187.381317
   2296,  -987.688354,   774.900024,   156.434464
   2297,  -992.114685,   774.900024,   125.333237
   2298,  -995.561951,   774.900024,   94.1083145
   2299,  -998.026733,   774.900024,   62.7905197
   2300,  -999.506531,   774.900024,    31.410759
   2301,   999.506531,   809.950012,    31.410759
   2302,   998.026733,   809.950012,   62.7905197
   2303,   995.561951,   809.950012,   94.1083145
   2304,   992.114685,   809.950012,   125.333237
   2305,   987.688354,   809.950012,   156.434464
   2306,   982.287231,   809.950012,   187.381317
   2307,   975.916748,   809.950012,   218.143234
   2308,   968.583191,   809.950012,    248.68988
   2309,   960.293701,   809.950012,   278.991119
   2310,   951.056519,   809.950012,   309.016998
   2311,   940.880798,   809.950012,   338.737915
   2312,   929.776489,   809.950012,   368.124542
   2313,   917.754639,   809.950012,   397.147888
   2314,   904.827026,   809.950012,   425.779297
   2315,   891.006531,   809.950012,   453.990509
   2316,   876.306702,   809.950012,   481.753662
   2317,   860.742004,   809.950012,   509.041412
   2318,   844.327942,   809.950012,   535.826782
   2319,   827.080566,   809.950012,   562.083374
   2320,   809.016968,   809.950012,   587.785278
   2321,   790.155029,   809.950012,   612.907043
   2322,   770.513245,   809.950012,   637.424011
   2323,   750.111084,   809.950012,    661.31189
   2324,   728.968628,   809.950012,   684.547119
   2325,   707.106812,   809.950012,   707.106812
   2326,   684.547119,   809.950012,   728.968628
   2327,    661.31189,   809.950012,   750.111084
   2328,   637.424011,   809.950012,   770.513245
   2329,   612.907043,   809.950012,   790.155029
   2330,   587.785278,   809.950012,   809.016968
   2331,   562.083374,   809.950012,   827.080566
   2332,   535.826782,   809.950012,   844.327942
   2333,   509.041412,   809.950012,   860.742004
   2334,   481.753662,   809.950012,   876.306702
   2335,   453.990509,   809.950012,   891.006531
   2336,   425.779297,   809.950012,   904.827026
   2337,   397.147888,   809.950012,   917.754639
   2338,   368.124542,   809.950012,   929.776489
   2339,   338.737915,   809.950012,   940.880798
   2340,   309.016998,   809.950012,   951.056519
   2341,   278.991119,   809.950012,   960.293701
   2342,    248.68988,   809.950012,   968.583191
   2343,   218.143234,   809.950012,   975.916748
   2344,   187.381317,   809.950012,   982.287231
   2345,   156.434464,   809.950012,   987.688354
   2346,   125.333237,   809.950012,   992.114685
   2347,   94.1083145,   809.950012,   995.561951
   2348,   62.7905197,   809.950012,   998.026733
   2349,    31.410759,   809.950012,   999.506531
   2350,           0.,   809.950012,        1000.
   2351,   -31.410759,   809.950012,   999.506531
   2352,  -62.7905197,   809.950012,   998.026733
   2353,  -94.1083145,   809.950012,   995.561951
   2354,  -125.333237,   809.950012,   992.114685
   2355,  -156.434464,   809.950012,   987.688354
   2356,  -187.381317,   809.950012,   982.287231
   2357,  -218.143234,   809.950012,   975.916748
   2358,   -248.68988,   809.950012,   968.583191
   2359,  -278.991119,   809.950012,   960.293701
   2360,  -309.016998,   809.950012,   951.056519
   2361,  -338.737915,   809.950012,   940.880798
   2362,  -368.124542,   809.950012,   929.776489
   2363,  -397.147888,   809.950012,   917.754639
   2364,  -425.779297,   809.950012,   904.827026
   2365,  -453.990509,   809.950012,   891.006531
   2366,  -481.753662,   809.950012,   876.306702
   2367,  -509.041412,   809.950012,   860.742004
   2368,  -535.826782,   809.950012,   844.327942
   2369,  -562.083374,   809.950012,   827.080566
   2370,  -587.785278,   809.950012,   809.016968
   2371,  -612.907043,   809.950012,   790.155029
   2372,  -637.424011,   809.950012,   770.513245
   2373,   -661.31189,   809.950012,   750.111084
   2374,  -684.547119,   809.950012,   728.968628
   2375,  -707.106812,   809.950012,   707.106812
   2376,  -728.968628,   809.950012,   684.547119
   2377,  -750.111084,   809.950012,    661.31189
   2378,  -770.513245,   809.950012,   637.424011
   2379,  -790.155029,   809.950012,   612.907043
   2380,  -809.016968,   809.950012,   587.785278
   2381,  -827.080566,   809.950012,   562.083374
   2382,  -844.327942,   809.950012,   535.826782
   2383,  -860.742004,   809.950012,   509.041412
   2384,  -876.306702,   809.950012,   481.753662
   2385,  -891.006531,   809.950012,   453.990509
   2386,  -904.827026,   809.950012,   425.779297
   2387,  -917.754639,   809.950012,   397.147888
   2388,  -929.776489,   809.950012,   368.124542
   2389,  -940.880798,   809.950012,   338.737915
   2390,  -951.056519,   809.950012,   309.016998
   2391,  -960.293701,   809.950012,   278.991119
   2392,  -968.583191,   809.950012,    248.68988
   2393,  -975.916748,   809.950012,   218.143234
   2394,  -982.287231,   809.950012,   187.381317
   2395,  -987.688354,   809.950012,   156.434464
   2396,  -992.114685,   809.950012,   125.333237
   2397,  -995.561951,   809.950012,   94.1083145
   2398,  -998.026733,   809.950012,   62.7905197
   2399,  -999.506531,   809.950012,    31.410759
   2400,   999.506531,       852.75,    31.410759
   2401,   998.026733,       852.75,   62.7905197
   2402,   995.561951,       852.75,   94.1083145
   2403,   992.114685,       852.75,   125.333237
   2404,   987.688354,       852.75,   156.434464
   2405,   982.287231,       852.75,   187.381317
   2406,   975.916748,       852.75,   218.143234
   2407,   968.583191,       852.75,    248.68988
   2408,   960.293701,       852.75,   278.991119
   2409,   951.056519,       852.75,   309.016998
   2410,   940.880798,       852.75,   338.737915
   2411,   929.776489,       852.75,   368.124542
   2412,   917.754639,       852.75,   397.147888
   2413,   904.827026,       852.75,   425.779297
   2414,   891.006531,       852.75,   453.990509
   2415,   876.306702,       852.75,   481.753662
   2416,   860.742004,       852.75,   509.041412
   2417,   844.327942,       852.75,   535.826782
   2418,   827.080566,       852.75,   562.083374
   2419,   809.016968,       852.75,   587.785278
   2420,   790.155029,       852.75,   612.907043
   2421,   770.513245,       852.75,   637.424011
   2422,   750.111084,       852.75,    661.31189
   2423,   728.968628,       852.75,   684.547119
   2424,   707.106812,       852.75,   707.106812
   2425,   684.547119,       852.75,   728.968628
   2426,    661.31189,       852.75,   750.111084
   2427,   637.424011,       852.75,   770.513245
   2428,   612.907043,       852.75,   790.155029
   2429,   587.785278,       852.75,   809.016968
   2430,   562.083374,       852.75,   827.080566
   2431,   535.826782,       852.75,   844.327942
   2432,   509.041412,       852.75,   860.742004
   2433,   481.753662,       852.75,   876.306702
   2434,   453.990509,       852.75,   891.006531
   2435,   425.779297,       852.75,   904.827026
   2436,   397.147888,       852.75,   917.754639
   2437,   368.124542,       852.75,   929.776489
   2438,   338.737915,       852.75,   940.880798
   2439,   309.016998,       852.75,   951.056519
   2440,   278.991119,       852.75,   960.293701
   2441,    248.68988,       852.75,   968.583191
   2442,   218.143234,       852.75,   975.916748
   2443,   187.381317,       852.75,   982.287231
   2444,   156.434464,       852.75,   987.688354
   2445,   125.333237,       852.75,   992.114685
   2446,   94.1083145,       852.75,   995.561951
   2447,   62.7905197,       852.75,   998.026733
   2448,    31.410759,       852.75,   999.506531
   2449,           0.,       852.75,        1000.
   2450,   -31.410759,       852.75,   999.506531
   2451,  -62.7905197,       852.75,   998.026733
   2452,  -94.1083145,       852.75,   995.561951
   2453,  -125.333237,       852.75,   992.114685
   2454,  -156.434464,       852.75,   987.688354
   2455,  -187.381317,       852.75,   982.287231
   2456,  -218.143234,       852.75,   975.916748
   2457,   -248.68988,       852.75,   968.583191
   2458,  -278.991119,       852.75,   960.293701
   2459,  -309.016998,       852.75,   951.056519
   2460,  -338.737915,       852.75,   940.880798
   2461,  -368.124542,       852.75,   929.776489
   2462,  -397.147888,       852.75,   917.754639
   2463,  -425.779297,       852.75,   904.827026
   2464,  -453.990509,       852.75,   891.006531
   2465,  -481.753662,       852.75,   876.306702
   2466,  -509.041412,       852.75,   860.742004
   2467,  -535.826782,       852.75,   844.327942
   2468,  -562.083374,       852.75,   827.080566
   2469,  -587.785278,       852.75,   809.016968
   2470,  -612.907043,       852.75,   790.155029
   2471,  -637.424011,       852.75,   770.513245
   2472,   -661.31189,       852.75,   750.111084
   2473,  -684.547119,       852.75,   728.968628
   2474,  -707.106812,       852.75,   707.106812
   2475,  -728.968628,       852.75,   684.547119
   2476,  -750.111084,       852.75,    661.31189
   2477,  -770.513245,       852.75,   637.424011
   2478,  -790.155029,       852.75,   612.907043
   2479,  -809.016968,       852.75,   587.785278
   2480,  -827.080566,       852.75,   562.083374
   2481,  -844.327942,       852.75,   535.826782
   2482,  -860.742004,       852.75,   509.041412
   2483,  -876.306702,       852.75,   481.753662
   2484,  -891.006531,       852.75,   453.990509
   2485,  -904.827026,       852.75,   425.779297
   2486,  -917.754639,       852.75,   397.147888
   2487,  -929.776489,       852.75,   368.124542
   2488,  -940.880798,       852.75,   338.737915
   2489,  -951.056519,       852.75,   309.016998
   2490,  -960.293701,       852.75,   278.991119
   2491,  -968.583191,       852.75,    248.68988
   2492,  -975.916748,       852.75,   218.143234
   2493,  -982.287231,       852.75,   187.381317
   2494,  -987.688354,       852.75,   156.434464
   2495,  -992.114685,       852.75,   125.333237
   2496,  -995.561951,       852.75,   94.1083145
   2497,  -998.026733,       852.75,   62.7905197
   2498,  -999.506531,       852.75,    31.410759
   2499,   999.506531,        860.5,    31.410759
   2500,   998.026733,        860.5,   62.7905197
   2501,   995.561951,        860.5,   94.1083145
   2502,   992.114685,        860.5,   125.333237
   2503,   987.688354,        860.5,   156.434464
   2504,   982.287231,        860.5,   187.381317
   2505,   975.916748,        860.5,   218.143234
   2506,   968.583191,        860.5,    248.68988
   2507,   960.293701,        860.5,   278.991119
   2508,   951.056519,        860.5,   309.016998
   2509,   940.880798,        860.5,   338.737915
   2510,   929.776489,        860.5,   368.124542
   2511,   917.754639,        860.5,   397.147888
   2512,   904.827026,        860.5,   425.779297
   2513,   891.006531,        860.5,   453.990509
   2514,   876.306702,        860.5,   481.753662
   2515,   860.742004,        860.5,   509.041412
   2516,   844.327942,        860.5,   535.826782
   2517,   827.080566,        860.5,   562.083374
   2518,   809.016968,        860.5,   587.785278
   2519,   790.155029,        860.5,   612.907043
   2520,   770.513245,        860.5,   637.424011
   2521,   750.111084,        860.5,    661.31189
   2522,   728.968628,        860.5,   684.547119
   2523,   707.106812,        860.5,   707.106812
   2524,   684.547119,        860.5,   728.968628
   2525,    661.31189,        860.5,   750.111084
   2526,   637.424011,        860.5,   770.513245
   2527,   612.907043,        860.5,   790.155029
   2528,   587.785278,        860.5,   809.016968
   2529,   562.083374,        860.5,   827.080566
   2530,   535.826782,        860.5,   844.327942
   2531,   509.041412,        860.5,   860.742004
   2532,   481.753662,        860.5,   876.306702
   2533,   453.990509,        860.5,   891.006531
   2534,   425.779297,        860.5,   904.827026
   2535,   397.147888,        860.5,   917.754639
   2536,   368.124542,        860.5,   929.776489
   2537,   338.737915,        860.5,   940.880798
   2538,   309.016998,        860.5,   951.056519
   2539,   278.991119,        860.5,   960.293701
   2540,    248.68988,        860.5,   968.583191
   2541,   218.143234,        860.5,   975.916748
   2542,   187.381317,        860.5,   982.287231
   2543,   156.434464,        860.5,   987.688354
   2544,   125.333237,        860.5,   992.114685
   2545,   94.1083145,        860.5,   995.561951
   2546,   62.7905197,        860.5,   998.026733
   2547,    31.410759,        860.5,   999.506531
   2548,           0.,        860.5,        1000.
   2549,   -31.410759,        860.5,   999.506531
   2550,  -62.7905197,        860.5,   998.026733
   2551,  -94.1083145,        860.5,   995.561951
   2552,  -125.333237,        860.5,   992.114685
   2553,  -156.434464,        860.5,   987.688354
   2554,  -187.381317,        860.5,   982.287231
   2555,  -218.143234,        860.5,   975.916748
   2556,   -248.68988,        860.5,   968.583191
   2557,  -278.991119,        860.5,   960.293701
   2558,  -309.016998,        860.5,   951.056519
   2559,  -338.737915,        860.5,   940.880798
   2560,  -368.124542,        860.5,   929.776489
   2561,  -397.147888,        860.5,   917.754639
   2562,  -425.779297,        860.5,   904.827026
   2563,  -453.990509,        860.5,   891.006531
   2564,  -481.753662,        860.5,   876.306702
   2565,  -509.041412,        860.5,   860.742004
   2566,  -535.826782,        860.5,   844.327942
   2567,  -562.083374,        860.5,   827.080566
   2568,  -587.785278,        860.5,   809.016968
   2569,  -612.907043,        860.5,   790.155029
   2570,  -637.424011,        860.5,   770.513245
   2571,   -661.31189,        860.5,   750.111084
   2572,  -684.547119,        860.5,   728.968628
   2573,  -707.106812,        860.5,   707.106812
   2574,  -728.968628,        860.5,   684.547119
   2575,  -750.111084,        860.5,    661.31189
   2576,  -770.513245,        860.5,   637.424011
   2577,  -790.155029,        860.5,   612.907043
   2578,  -809.016968,        860.5,   587.785278
   2579,  -827.080566,        860.5,   562.083374
   2580,  -844.327942,        860.5,   535.826782
   2581,  -860.742004,        860.5,   509.041412
   2582,  -876.306702,        860.5,   481.753662
   2583,  -891.006531,        860.5,   453.990509
   2584,  -904.827026,        860.5,   425.779297
   2585,  -917.754639,        860.5,   397.147888
   2586,  -929.776489,        860.5,   368.124542
   2587,  -940.880798,        860.5,   338.737915
   2588,  -951.056519,        860.5,   309.016998
   2589,  -960.293701,        860.5,   278.991119
   2590,  -968.583191,        860.5,    248.68988
   2591,  -975.916748,        860.5,   218.143234
   2592,  -982.287231,        860.5,   187.381317
   2593,  -987.688354,        860.5,   156.434464
   2594,  -992.114685,        860.5,   125.333237
   2595,  -995.561951,        860.5,   94.1083145
   2596,  -998.026733,        860.5,   62.7905197
   2597,  -999.506531,        860.5,    31.410759
   2598,   999.506531,       868.25,    31.410759
   2599,   998.026733,       868.25,   62.7905197
   2600,   995.561951,       868.25,   94.1083145
   2601,   992.114685,       868.25,   125.333237
   2602,   987.688354,       868.25,   156.434464
   2603,   982.287231,       868.25,   187.381317
   2604,   975.916748,       868.25,   218.143234
   2605,   968.583191,       868.25,    248.68988
   2606,   960.293701,       868.25,   278.991119
   2607,   951.056519,       868.25,   309.016998
   2608,   940.880798,       868.25,   338.737915
   2609,   929.776489,       868.25,   368.124542
   2610,   917.754639,       868.25,   397.147888
   2611,   904.827026,       868.25,   425.779297
   2612,   891.006531,       868.25,   453.990509
   2613,   876.306702,       868.25,   481.753662
   2614,   860.742004,       868.25,   509.041412
   2615,   844.327942,       868.25,   535.826782
   2616,   827.080566,       868.25,   562.083374
   2617,   809.016968,       868.25,   587.785278
   2618,   790.155029,       868.25,   612.907043
   2619,   770.513245,       868.25,   637.424011
   2620,   750.111084,       868.25,    661.31189
   2621,   728.968628,       868.25,   684.547119
   2622,   707.106812,       868.25,   707.106812
   2623,   684.547119,       868.25,   728.968628
   2624,    661.31189,       868.25,   750.111084
   2625,   637.424011,       868.25,   770.513245
   2626,   612.907043,       868.25,   790.155029
   2627,   587.785278,       868.25,   809.016968
   2628,   562.083374,       868.25,   827.080566
   2629,   535.826782,       868.25,   844.327942
   2630,   509.041412,       868.25,   860.742004
   2631,   481.753662,       868.25,   876.306702
   2632,   453.990509,       868.25,   891.006531
   2633,   425.779297,       868.25,   904.827026
   2634,   397.147888,       868.25,   917.754639
   2635,   368.124542,       868.25,   929.776489
   2636,   338.737915,       868.25,   940.880798
   2637,   309.016998,       868.25,   951.056519
   2638,   278.991119,       868.25,   960.293701
   2639,    248.68988,       868.25,   968.583191
   2640,   218.143234,       868.25,   975.916748
   2641,   187.381317,       868.25,   982.287231
   2642,   156.434464,       868.25,   987.688354
   2643,   125.333237,       868.25,   992.114685
   2644,   94.1083145,       868.25,   995.561951
   2645,   62.7905197,       868.25,   998.026733
   2646,    31.410759,       868.25,   999.506531
   2647,           0.,       868.25,        1000.
   2648,   -31.410759,       868.25,   999.506531
   2649,  -62.7905197,       868.25,   998.026733
   2650,  -94.1083145,       868.25,   995.561951
   2651,  -125.333237,       868.25,   992.114685
   2652,  -156.434464,       868.25,   987.688354
   2653,  -187.381317,       868.25,   982.287231
   2654,  -218.143234,       868.25,   975.916748
   2655,   -248.68988,       868.25,   968.583191
   2656,  -278.991119,       868.25,   960.293701
   2657,  -309.016998,       868.25,   951.056519
   2658,  -338.737915,       868.25,   940.880798
   2659,  -368.124542,       868.25,   929.776489
   2660,  -397.147888,       868.25,   917.754639
   2661,  -425.779297,       868.25,   904.827026
   2662,  -453.990509,       868.25,   891.006531
   2663,  -481.753662,       868.25,   876.306702
   2664,  -509.041412,       868.25,   860.742004
   2665,  -535.826782,       868.25,   844.327942
   2666,  -562.083374,       868.25,   827.080566
   2667,  -587.785278,       868.25,   809.016968
   2668,  -612.907043,       868.25,   790.155029
   2669,  -637.424011,       868.25,   770.513245
   2670,   -661.31189,       868.25,   750.111084
   2671,  -684.547119,       868.25,   728.968628
   2672,  -707.106812,       868.25,   707.106812
   2673,  -728.968628,       868.25,   684.547119
   2674,  -750.111084,       868.25,    661.31189
   2675,  -770.513245,       868.25,   637.424011
   2676,  -790.155029,       868.25,   612.907043
   2677,  -809.016968,       868.25,   587.785278
   2678,  -827.080566,       868.25,   562.083374
   2679,  -844.327942,       868.25,   535.826782
   2680,  -860.742004,       868.25,   509.041412
   2681,  -876.306702,       868.25,   481.753662
   2682,  -891.006531,       868.25,   453.990509
   2683,  -904.827026,       868.25,   425.779297
   2684,  -917.754639,       868.25,   397.147888
   2685,  -929.776489,       868.25,   368.124542
   2686,  -940.880798,       868.25,   338.737915
   2687,  -951.056519,       868.25,   309.016998
   2688,  -960.293701,       868.25,   278.991119
   2689,  -968.583191,       868.25,    248.68988
   2690,  -975.916748,       868.25,   218.143234
   2691,  -982.287231,       868.25,   187.381317
   2692,  -987.688354,       868.25,   156.434464
   2693,  -992.114685,       868.25,   125.333237
   2694,  -995.561951,       868.25,   94.1083145
   2695,  -998.026733,       868.25,   62.7905197
   2696,  -999.506531,       868.25,    31.410759
   2697,   999.506531,         876.,    31.410759
   2698,   998.026733,         876.,   62.7905197
   2699,   995.561951,         876.,   94.1083145
   2700,   992.114685,         876.,   125.333237
   2701,   987.688354,         876.,   156.434464
   2702,   982.287231,         876.,   187.381317
   2703,   975.916748,         876.,   218.143234
   2704,   968.583191,         876.,    248.68988
   2705,   960.293701,         876.,   278.991119
   2706,   951.056519,         876.,   309.016998
   2707,   940.880798,         876.,   338.737915
   2708,   929.776489,         876.,   368.124542
   2709,   917.754639,         876.,   397.147888
   2710,   904.827026,         876.,   425.779297
   2711,   891.006531,         876.,   453.990509
   2712,   876.306702,         876.,   481.753662
   2713,   860.742004,         876.,   509.041412
   2714,   844.327942,         876.,   535.826782
   2715,   827.080566,         876.,   562.083374
   2716,   809.016968,         876.,   587.785278
   2717,   790.155029,         876.,   612.907043
   2718,   770.513245,         876.,   637.424011
   2719,   750.111084,         876.,    661.31189
   2720,   728.968628,         876.,   684.547119
   2721,   707.106812,         876.,   707.106812
   2722,   684.547119,         876.,   728.968628
   2723,    661.31189,         876.,   750.111084
   2724,   637.424011,         876.,   770.513245
   2725,   612.907043,         876.,   790.155029
   2726,   587.785278,         876.,   809.016968
   2727,   562.083374,         876.,   827.080566
   2728,   535.826782,         876.,   844.327942
   2729,   509.041412,         876.,   860.742004
   2730,   481.753662,         876.,   876.306702
   2731,   453.990509,         876.,   891.006531
   2732,   425.779297,         876.,   904.827026
   2733,   397.147888,         876.,   917.754639
   2734,   368.124542,         876.,   929.776489
   2735,   338.737915,         876.,   940.880798
   2736,   309.016998,         876.,   951.056519
   2737,   278.991119,         876.,   960.293701
   2738,    248.68988,         876.,   968.583191
   2739,   218.143234,         876.,   975.916748
   2740,   187.381317,         876.,   982.287231
   2741,   156.434464,         876.,   987.688354
   2742,   125.333237,         876.,   992.114685
   2743,   94.1083145,         876.,   995.561951
   2744,   62.7905197,         876.,   998.026733
   2745,    31.410759,         876.,   999.506531
   2746,           0.,         876.,        1000.
   2747,   -31.410759,         876.,   999.506531
   2748,  -62.7905197,         876.,   998.026733
   2749,  -94.1083145,         876.,   995.561951
   2750,  -125.333237,         876.,   992.114685
   2751,  -156.434464,         876.,   987.688354
   2752,  -187.381317,         876.,   982.287231
   2753,  -218.143234,         876.,   975.916748
   2754,   -248.68988,         876.,   968.583191
   2755,  -278.991119,         876.,   960.293701
   2756,  -309.016998,         876.,   951.056519
   2757,  -338.737915,         876.,   940.880798
   2758,  -368.124542,         876.,   929.776489
   2759,  -397.147888,         876.,   917.754639
   2760,  -425.779297,         876.,   904.827026
   2761,  -453.990509,         876.,   891.006531
   2762,  -481.753662,         876.,   876.306702
   2763,  -509.041412,         876.,   860.742004
   2764,  -535.826782,         876.,   844.327942
   2765,  -562.083374,         876.,   827.080566
   2766,  -587.785278,         876.,   809.016968
   2767,  -612.907043,         876.,   790.155029
   2768,  -637.424011,         876.,   770.513245
   2769,   -661.31189,         876.,   750.111084
   2770,  -684.547119,         876.,   728.968628
   2771,  -707.106812,         876.,   707.106812
   2772,  -728.968628,         876.,   684.547119
   2773,  -750.111084,         876.,    661.31189
   2774,  -770.513245,         876.,   637.424011
   2775,  -790.155029,         876.,   612.907043
   2776,  -809.016968,         876.,   587.785278
   2777,  -827.080566,         876.,   562.083374
   2778,  -844.327942,         876.,   535.826782
   2779,  -860.742004,         876.,   509.041412
   2780,  -876.306702,         876.,   481.753662
   2781,  -891.006531,         876.,   453.990509
   2782,  -904.827026,         876.,   425.779297
   2783,  -917.754639,         876.,   397.147888
   2784,  -929.776489,         876.,   368.124542
   2785,  -940.880798,         876.,   338.737915
   2786,  -951.056519,         876.,   309.016998
   2787,  -960.293701,         876.,   278.991119
   2788,  -968.583191,         876.,    248.68988
   2789,  -975.916748,         876.,   218.143234
   2790,  -982.287231,         876.,   187.381317
   2791,  -987.688354,         876.,   156.434464
   2792,  -992.114685,         876.,   125.333237
   2793,  -995.561951,         876.,   94.1083145
   2794,  -998.026733,         876.,   62.7905197
   2795,  -999.506531,         876.,    31.410759
   2796,   999.506531,       883.75,    31.410759
   2797,   998.026733,       883.75,   62.7905197
   2798,   995.561951,       883.75,   94.1083145
   2799,   992.114685,       883.75,   125.333237
   2800,   987.688354,       883.75,   156.434464
   2801,   982.287231,       883.75,   187.381317
   2802,   975.916748,       883.75,   218.143234
   2803,   968.583191,       883.75,    248.68988
   2804,   960.293701,       883.75,   278.991119
   2805,   951.056519,       883.75,   309.016998
   2806,   940.880798,       883.75,   338.737915
   2807,   929.776489,       883.75,   368.124542
   2808,   917.754639,       883.75,   397.147888
   2809,   904.827026,       883.75,   425.779297
   2810,   891.006531,       883.75,   453.990509
   2811,   876.306702,       883.75,   481.753662
   2812,   860.742004,       883.75,   509.041412
   2813,   844.327942,       883.75,   535.826782
   2814,   827.080566,       883.75,   562.083374
   2815,   809.016968,       883.75,   587.785278
   2816,   790.155029,       883.75,   612.907043
   2817,   770.513245,       883.75,   637.424011
   2818,   750.111084,       883.75,    661.31189
   2819,   728.968628,       883.75,   684.547119
   2820,   707.106812,       883.75,   707.106812
   2821,   684.547119,       883.75,   728.968628
   2822,    661.31189,       883.75,   750.111084
   2823,   637.424011,       883.75,   770.513245
   2824,   612.907043,       883.75,   790.155029
   2825,   587.785278,       883.75,   809.016968
   2826,   562.083374,       883.75,   827.080566
   2827,   535.826782,       883.75,   844.327942
   2828,   509.041412,       883.75,   860.742004
   2829,   481.753662,       883.75,   876.306702
   2830,   453.990509,       883.75,   891.006531
   2831,   425.779297,       883.75,   904.827026
   2832,   397.147888,       883.75,   917.754639
   2833,   368.124542,       883.75,   929.776489
   2834,   338.737915,       883.75,   940.880798
   2835,   309.016998,       883.75,   951.056519
   2836,   278.991119,       883.75,   960.293701
   2837,    248.68988,       883.75,   968.583191
   2838,   218.143234,       883.75,   975.916748
   2839,   187.381317,       883.75,   982.287231
   2840,   156.434464,       883.75,   987.688354
   2841,   125.333237,       883.75,   992.114685
   2842,   94.1083145,       883.75,   995.561951
   2843,   62.7905197,       883.75,   998.026733
   2844,    31.410759,       883.75,   999.506531
   2845,           0.,       883.75,        1000.
   2846,   -31.410759,       883.75,   999.506531
   2847,  -62.7905197,       883.75,   998.026733
   2848,  -94.1083145,       883.75,   995.561951
   2849,  -125.333237,       883.75,   992.114685
   2850,  -156.434464,       883.75,   987.688354
   2851,  -187.381317,       883.75,   982.287231
   2852,  -218.143234,       883.75,   975.916748
   2853,   -248.68988,       883.75,   968.583191
   2854,  -278.991119,       883.75,   960.293701
   2855,  -309.016998,       883.75,   951.056519
   2856,  -338.737915,       883.75,   940.880798
   2857,  -368.124542,       883.75,   929.776489
   2858,  -397.147888,       883.75,   917.754639
   2859,  -425.779297,       883.75,   904.827026
   2860,  -453.990509,       883.75,   891.006531
   2861,  -481.753662,       883.75,   876.306702
   2862,  -509.041412,       883.75,   860.742004
   2863,  -535.826782,       883.75,   844.327942
   2864,  -562.083374,       883.75,   827.080566
   2865,  -587.785278,       883.75,   809.016968
   2866,  -612.907043,       883.75,   790.155029
   2867,  -637.424011,       883.75,   770.513245
   2868,   -661.31189,       883.75,   750.111084
   2869,  -684.547119,       883.75,   728.968628
   2870,  -707.106812,       883.75,   707.106812
   2871,  -728.968628,       883.75,   684.547119
   2872,  -750.111084,       883.75,    661.31189
   2873,  -770.513245,       883.75,   637.424011
   2874,  -790.155029,       883.75,   612.907043
   2875,  -809.016968,       883.75,   587.785278
   2876,  -827.080566,       883.75,   562.083374
   2877,  -844.327942,       883.75,   535.826782
   2878,  -860.742004,       883.75,   509.041412
   2879,  -876.306702,       883.75,   481.753662
   2880,  -891.006531,       883.75,   453.990509
   2881,  -904.827026,       883.75,   425.779297
   2882,  -917.754639,       883.75,   397.147888
   2883,  -929.776489,       883.75,   368.124542
   2884,  -940.880798,       883.75,   338.737915
   2885,  -951.056519,       883.75,   309.016998
   2886,  -960.293701,       883.75,   278.991119
   2887,  -968.583191,       883.75,    248.68988
   2888,  -975.916748,       883.75,   218.143234
   2889,  -982.287231,       883.75,   187.381317
   2890,  -987.688354,       883.75,   156.434464
   2891,  -992.114685,       883.75,   125.333237
   2892,  -995.561951,       883.75,   94.1083145
   2893,  -998.026733,       883.75,   62.7905197
   2894,  -999.506531,       883.75,    31.410759
   2895,   999.506531,        891.5,    31.410759
   2896,   998.026733,        891.5,   62.7905197
   2897,   995.561951,        891.5,   94.1083145
   2898,   992.114685,        891.5,   125.333237
   2899,   987.688354,        891.5,   156.434464
   2900,   982.287231,        891.5,   187.381317
   2901,   975.916748,        891.5,   218.143234
   2902,   968.583191,        891.5,    248.68988
   2903,   960.293701,        891.5,   278.991119
   2904,   951.056519,        891.5,   309.016998
   2905,   940.880798,        891.5,   338.737915
   2906,   929.776489,        891.5,   368.124542
   2907,   917.754639,        891.5,   397.147888
   2908,   904.827026,        891.5,   425.779297
   2909,   891.006531,        891.5,   453.990509
   2910,   876.306702,        891.5,   481.753662
   2911,   860.742004,        891.5,   509.041412
   2912,   844.327942,        891.5,   535.826782
   2913,   827.080566,        891.5,   562.083374
   2914,   809.016968,        891.5,   587.785278
   2915,   790.155029,        891.5,   612.907043
   2916,   770.513245,        891.5,   637.424011
   2917,   750.111084,        891.5,    661.31189
   2918,   728.968628,        891.5,   684.547119
   2919,   707.106812,        891.5,   707.106812
   2920,   684.547119,        891.5,   728.968628
   2921,    661.31189,        891.5,   750.111084
   2922,   637.424011,        891.5,   770.513245
   2923,   612.907043,        891.5,   790.155029
   2924,   587.785278,        891.5,   809.016968
   2925,   562.083374,        891.5,   827.080566
   2926,   535.826782,        891.5,   844.327942
   2927,   509.041412,        891.5,   860.742004
   2928,   481.753662,        891.5,   876.306702
   2929,   453.990509,        891.5,   891.006531
   2930,   425.779297,        891.5,   904.827026
   2931,   397.147888,        891.5,   917.754639
   2932,   368.124542,        891.5,   929.776489
   2933,   338.737915,        891.5,   940.880798
   2934,   309.016998,        891.5,   951.056519
   2935,   278.991119,        891.5,   960.293701
   2936,    248.68988,        891.5,   968.583191
   2937,   218.143234,        891.5,   975.916748
   2938,   187.381317,        891.5,   982.287231
   2939,   156.434464,        891.5,   987.688354
   2940,   125.333237,        891.5,   992.114685
   2941,   94.1083145,        891.5,   995.561951
   2942,   62.7905197,        891.5,   998.026733
   2943,    31.410759,        891.5,   999.506531
   2944,           0.,        891.5,        1000.
   2945,   -31.410759,        891.5,   999.506531
   2946,  -62.7905197,        891.5,   998.026733
   2947,  -94.1083145,        891.5,   995.561951
   2948,  -125.333237,        891.5,   992.114685
   2949,  -156.434464,        891.5,   987.688354
   2950,  -187.381317,        891.5,   982.287231
   2951,  -218.143234,        891.5,   975.916748
   2952,   -248.68988,        891.5,   968.583191
   2953,  -278.991119,        891.5,   960.293701
   2954,  -309.016998,        891.5,   951.056519
   2955,  -338.737915,        891.5,   940.880798
   2956,  -368.124542,        891.5,   929.776489
   2957,  -397.147888,        891.5,   917.754639
   2958,  -425.779297,        891.5,   904.827026
   2959,  -453.990509,        891.5,   891.006531
   2960,  -481.753662,        891.5,   876.306702
   2961,  -509.041412,        891.5,   860.742004
   2962,  -535.826782,        891.5,   844.327942
   2963,  -562.083374,        891.5,   827.080566
   2964,  -587.785278,        891.5,   809.016968
   2965,  -612.907043,        891.5,   790.155029
   2966,  -637.424011,        891.5,   770.513245
   2967,   -661.31189,        891.5,   750.111084
   2968,  -684.547119,        891.5,   728.968628
   2969,  -707.106812,        891.5,   707.106812
   2970,  -728.968628,        891.5,   684.547119
   2971,  -750.111084,        891.5,    661.31189
   2972,  -770.513245,        891.5,   637.424011
   2973,  -790.155029,        891.5,   612.907043
   2974,  -809.016968,        891.5,   587.785278
   2975,  -827.080566,        891.5,   562.083374
   2976,  -844.327942,        891.5,   535.826782
   2977,  -860.742004,        891.5,   509.041412
   2978,  -876.306702,        891.5,   481.753662
   2979,  -891.006531,        891.5,   453.990509
   2980,  -904.827026,        891.5,   425.779297
   2981,  -917.754639,        891.5,   397.147888
   2982,  -929.776489,        891.5,   368.124542
   2983,  -940.880798,        891.5,   338.737915
   2984,  -951.056519,        891.5,   309.016998
   2985,  -960.293701,        891.5,   278.991119
   2986,  -968.583191,        891.5,    248.68988
   2987,  -975.916748,        891.5,   218.143234
   2988,  -982.287231,        891.5,   187.381317
   2989,  -987.688354,        891.5,   156.434464
   2990,  -992.114685,        891.5,   125.333237
   2991,  -995.561951,        891.5,   94.1083145
   2992,  -998.026733,        891.5,   62.7905197
   2993,  -999.506531,        891.5,    31.410759
   2994,   999.506531,       899.25,    31.410759
   2995,   998.026733,       899.25,   62.7905197
   2996,   995.561951,       899.25,   94.1083145
   2997,   992.114685,       899.25,   125.333237
   2998,   987.688354,       899.25,   156.434464
   2999,   982.287231,       899.25,   187.381317
   3000,   975.916748,       899.25,   218.143234
   3001,   968.583191,       899.25,    248.68988
   3002,   960.293701,       899.25,   278.991119
   3003,   951.056519,       899.25,   309.016998
   3004,   940.880798,       899.25,   338.737915
   3005,   929.776489,       899.25,   368.124542
   3006,   917.754639,       899.25,   397.147888
   3007,   904.827026,       899.25,   425.779297
   3008,   891.006531,       899.25,   453.990509
   3009,   876.306702,       899.25,   481.753662
   3010,   860.742004,       899.25,   509.041412
   3011,   844.327942,       899.25,   535.826782
   3012,   827.080566,       899.25,   562.083374
   3013,   809.016968,       899.25,   587.785278
   3014,   790.155029,       899.25,   612.907043
   3015,   770.513245,       899.25,   637.424011
   3016,   750.111084,       899.25,    661.31189
   3017,   728.968628,       899.25,   684.547119
   3018,   707.106812,       899.25,   707.106812
   3019,   684.547119,       899.25,   728.968628
   3020,    661.31189,       899.25,   750.111084
   3021,   637.424011,       899.25,   770.513245
   3022,   612.907043,       899.25,   790.155029
   3023,   587.785278,       899.25,   809.016968
   3024,   562.083374,       899.25,   827.080566
   3025,   535.826782,       899.25,   844.327942
   3026,   509.041412,       899.25,   860.742004
   3027,   481.753662,       899.25,   876.306702
   3028,   453.990509,       899.25,   891.006531
   3029,   425.779297,       899.25,   904.827026
   3030,   397.147888,       899.25,   917.754639
   3031,   368.124542,       899.25,   929.776489
   3032,   338.737915,       899.25,   940.880798
   3033,   309.016998,       899.25,   951.056519
   3034,   278.991119,       899.25,   960.293701
   3035,    248.68988,       899.25,   968.583191
   3036,   218.143234,       899.25,   975.916748
   3037,   187.381317,       899.25,   982.287231
   3038,   156.434464,       899.25,   987.688354
   3039,   125.333237,       899.25,   992.114685
   3040,   94.1083145,       899.25,   995.561951
   3041,   62.7905197,       899.25,   998.026733
   3042,    31.410759,       899.25,   999.506531
   3043,           0.,       899.25,        1000.
   3044,   -31.410759,       899.25,   999.506531
   3045,  -62.7905197,       899.25,   998.026733
   3046,  -94.1083145,       899.25,   995.561951
   3047,  -125.333237,       899.25,   992.114685
   3048,  -156.434464,       899.25,   987.688354
   3049,  -187.381317,       899.25,   982.287231
   3050,  -218.143234,       899.25,   975.916748
   3051,   -248.68988,       899.25,   968.583191
   3052,  -278.991119,       899.25,   960.293701
   3053,  -309.016998,       899.25,   951.056519
   3054,  -338.737915,       899.25,   940.880798
   3055,  -368.124542,       899.25,   929.776489
   3056,  -397.147888,       899.25,   917.754639
   3057,  -425.779297,       899.25,   904.827026
   3058,  -453.990509,       899.25,   891.006531
   3059,  -481.753662,       899.25,   876.306702
   3060,  -509.041412,       899.25,   860.742004
   3061,  -535.826782,       899.25,   844.327942
   3062,  -562.083374,       899.25,   827.080566
   3063,  -587.785278,       899.25,   809.016968
   3064,  -612.907043,       899.25,   790.155029
   3065,  -637.424011,       899.25,   770.513245
   3066,   -661.31189,       899.25,   750.111084
   3067,  -684.547119,       899.25,   728.968628
   3068,  -707.106812,       899.25,   707.106812
   3069,  -728.968628,       899.25,   684.547119
   3070,  -750.111084,       899.25,    661.31189
   3071,  -770.513245,       899.25,   637.424011
   3072,  -790.155029,       899.25,   612.907043
   3073,  -809.016968,       899.25,   587.785278
   3074,  -827.080566,       899.25,   562.083374
   3075,  -844.327942,       899.25,   535.826782
   3076,  -860.742004,       899.25,   509.041412
   3077,  -876.306702,       899.25,   481.753662
   3078,  -891.006531,       899.25,   453.990509
   3079,  -904.827026,       899.25,   425.779297
   3080,  -917.754639,       899.25,   397.147888
   3081,  -929.776489,       899.25,   368.124542
   3082,  -940.880798,       899.25,   338.737915
   3083,  -951.056519,       899.25,   309.016998
   3084,  -960.293701,       899.25,   278.991119
   3085,  -968.583191,       899.25,    248.68988
   3086,  -975.916748,       899.25,   218.143234
   3087,  -982.287231,       899.25,   187.381317
   3088,  -987.688354,       899.25,   156.434464
   3089,  -992.114685,       899.25,   125.333237
   3090,  -995.561951,       899.25,   94.1083145
   3091,  -998.026733,       899.25,   62.7905197
   3092,  -999.506531,       899.25,    31.410759
   3093,   999.506531,         907.,    31.410759
   3094,   998.026733,         907.,   62.7905197
   3095,   995.561951,         907.,   94.1083145
   3096,   992.114685,         907.,   125.333237
   3097,   987.688354,         907.,   156.434464
   3098,   982.287231,         907.,   187.381317
   3099,   975.916748,         907.,   218.143234
   3100,   968.583191,         907.,    248.68988
   3101,   960.293701,         907.,   278.991119
   3102,   951.056519,         907.,   309.016998
   3103,   940.880798,         907.,   338.737915
   3104,   929.776489,         907.,   368.124542
   3105,   917.754639,         907.,   397.147888
   3106,   904.827026,         907.,   425.779297
   3107,   891.006531,         907.,   453.990509
   3108,   876.306702,         907.,   481.753662
   3109,   860.742004,         907.,   509.041412
   3110,   844.327942,         907.,   535.826782
   3111,   827.080566,         907.,   562.083374
   3112,   809.016968,         907.,   587.785278
   3113,   790.155029,         907.,   612.907043
   3114,   770.513245,         907.,   637.424011
   3115,   750.111084,         907.,    661.31189
   3116,   728.968628,         907.,   684.547119
   3117,   707.106812,         907.,   707.106812
   3118,   684.547119,         907.,   728.968628
   3119,    661.31189,         907.,   750.111084
   3120,   637.424011,         907.,   770.513245
   3121,   612.907043,         907.,   790.155029
   3122,   587.785278,         907.,   809.016968
   3123,   562.083374,         907.,   827.080566
   3124,   535.826782,         907.,   844.327942
   3125,   509.041412,         907.,   860.742004
   3126,   481.753662,         907.,   876.306702
   3127,   453.990509,         907.,   891.006531
   3128,   425.779297,         907.,   904.827026
   3129,   397.147888,         907.,   917.754639
   3130,   368.124542,         907.,   929.776489
   3131,   338.737915,         907.,   940.880798
   3132,   309.016998,         907.,   951.056519
   3133,   278.991119,         907.,   960.293701
   3134,    248.68988,         907.,   968.583191
   3135,   218.143234,         907.,   975.916748
   3136,   187.381317,         907.,   982.287231
   3137,   156.434464,         907.,   987.688354
   3138,   125.333237,         907.,   992.114685
   3139,   94.1083145,         907.,   995.561951
   3140,   62.7905197,         907.,   998.026733
   3141,    31.410759,         907.,   999.506531
   3142,           0.,         907.,        1000.
   3143,   -31.410759,         907.,   999.506531
   3144,  -62.7905197,         907.,   998.026733
   3145,  -94.1083145,         907.,   995.561951
   3146,  -125.333237,         907.,   992.114685
   3147,  -156.434464,         907.,   987.688354
   3148,  -187.381317,         907.,   982.287231
   3149,  -218.143234,         907.,   975.916748
   3150,   -248.68988,         907.,   968.583191
   3151,  -278.991119,         907.,   960.293701
   3152,  -309.016998,         907.,   951.056519
   3153,  -338.737915,         907.,   940.880798
   3154,  -368.124542,         907.,   929.776489
   3155,  -397.147888,         907.,   917.754639
   3156,  -425.779297,         907.,   904.827026
   3157,  -453.990509,         907.,   891.006531
   3158,  -481.753662,         907.,   876.306702
   3159,  -509.041412,         907.,   860.742004
   3160,  -535.826782,         907.,   844.327942
   3161,  -562.083374,         907.,   827.080566
   3162,  -587.785278,         907.,   809.016968
   3163,  -612.907043,         907.,   790.155029
   3164,  -637.424011,         907.,   770.513245
   3165,   -661.31189,         907.,   750.111084
   3166,  -684.547119,         907.,   728.968628
   3167,  -707.106812,         907.,   707.106812
   3168,  -728.968628,         907.,   684.547119
   3169,  -750.111084,         907.,    661.31189
   3170,  -770.513245,         907.,   637.424011
   3171,  -790.155029,         907.,   612.907043
   3172,  -809.016968,         907.,   587.785278
   3173,  -827.080566,         907.,   562.083374
   3174,  -844.327942,         907.,   535.826782
   3175,  -860.742004,         907.,   509.041412
   3176,  -876.306702,         907.,   481.753662
   3177,  -891.006531,         907.,   453.990509
   3178,  -904.827026,         907.,   425.779297
   3179,  -917.754639,         907.,   397.147888
   3180,  -929.776489,         907.,   368.124542
   3181,  -940.880798,         907.,   338.737915
   3182,  -951.056519,         907.,   309.016998
   3183,  -960.293701,         907.,   278.991119
   3184,  -968.583191,         907.,    248.68988
   3185,  -975.916748,         907.,   218.143234
   3186,  -982.287231,         907.,   187.381317
   3187,  -987.688354,         907.,   156.434464
   3188,  -992.114685,         907.,   125.333237
   3189,  -995.561951,         907.,   94.1083145
   3190,  -998.026733,         907.,   62.7905197
   3191,  -999.506531,         907.,    31.410759
   3192,   999.506531,       914.75,    31.410759
   3193,   998.026733,       914.75,   62.7905197
   3194,   995.561951,       914.75,   94.1083145
   3195,   992.114685,       914.75,   125.333237
   3196,   987.688354,       914.75,   156.434464
   3197,   982.287231,       914.75,   187.381317
   3198,   975.916748,       914.75,   218.143234
   3199,   968.583191,       914.75,    248.68988
   3200,   960.293701,       914.75,   278.991119
   3201,   951.056519,       914.75,   309.016998
   3202,   940.880798,       914.75,   338.737915
   3203,   929.776489,       914.75,   368.124542
   3204,   917.754639,       914.75,   397.147888
   3205,   904.827026,       914.75,   425.779297
   3206,   891.006531,       914.75,   453.990509
   3207,   876.306702,       914.75,   481.753662
   3208,   860.742004,       914.75,   509.041412
   3209,   844.327942,       914.75,   535.826782
   3210,   827.080566,       914.75,   562.083374
   3211,   809.016968,       914.75,   587.785278
   3212,   790.155029,       914.75,   612.907043
   3213,   770.513245,       914.75,   637.424011
   3214,   750.111084,       914.75,    661.31189
   3215,   728.968628,       914.75,   684.547119
   3216,   707.106812,       914.75,   707.106812
   3217,   684.547119,       914.75,   728.968628
   3218,    661.31189,       914.75,   750.111084
   3219,   637.424011,       914.75,   770.513245
   3220,   612.907043,       914.75,   790.155029
   3221,   587.785278,       914.75,   809.016968
   3222,   562.083374,       914.75,   827.080566
   3223,   535.826782,       914.75,   844.327942
   3224,   509.041412,       914.75,   860.742004
   3225,   481.753662,       914.75,   876.306702
   3226,   453.990509,       914.75,   891.006531
   3227,   425.779297,       914.75,   904.827026
   3228,   397.147888,       914.75,   917.754639
   3229,   368.124542,       914.75,   929.776489
   3230,   338.737915,       914.75,   940.880798
   3231,   309.016998,       914.75,   951.056519
   3232,   278.991119,       914.75,   960.293701
   3233,    248.68988,       914.75,   968.583191
   3234,   218.143234,       914.75,   975.916748
   3235,   187.381317,       914.75,   982.287231
   3236,   156.434464,       914.75,   987.688354
   3237,   125.333237,       914.75,   992.114685
   3238,   94.1083145,       914.75,   995.561951
   3239,   62.7905197,       914.75,   998.026733
   3240,    31.410759,       914.75,   999.506531
   3241,           0.,       914.75,        1000.
   3242,   -31.410759,       914.75,   999.506531
   3243,  -62.7905197,       914.75,   998.026733
   3244,  -94.1083145,       914.75,   995.561951
   3245,  -125.333237,       914.75,   992.114685
   3246,  -156.434464,       914.75,   987.688354
   3247,  -187.381317,       914.75,   982.287231
   3248,  -218.143234,       914.75,   975.916748
   3249,   -248.68988,       914.75,   968.583191
   3250,  -278.991119,       914.75,   960.293701
   3251,  -309.016998,       914.75,   951.056519
   3252,  -338.737915,       914.75,   940.880798
   3253,  -368.124542,       914.75,   929.776489
   3254,  -397.147888,       914.75,   917.754639
   3255,  -425.779297,       914.75,   904.827026
   3256,  -453.990509,       914.75,   891.006531
   3257,  -481.753662,       914.75,   876.306702
   3258,  -509.041412,       914.75,   860.742004
   3259,  -535.826782,       914.75,   844.327942
   3260,  -562.083374,       914.75,   827.080566
   3261,  -587.785278,       914.75,   809.016968
   3262,  -612.907043,       914.75,   790.155029
   3263,  -637.424011,       914.75,   770.513245
   3264,   -661.31189,       914.75,   750.111084
   3265,  -684.547119,       914.75,   728.968628
   3266,  -707.106812,       914.75,   707.106812
   3267,  -728.968628,       914.75,   684.547119
   3268,  -750.111084,       914.75,    661.31189
   3269,  -770.513245,       914.75,   637.424011
   3270,  -790.155029,       914.75,   612.907043
   3271,  -809.016968,       914.75,   587.785278
   3272,  -827.080566,       914.75,   562.083374
   3273,  -844.327942,       914.75,   535.826782
   3274,  -860.742004,       914.75,   509.041412
   3275,  -876.306702,       914.75,   481.753662
   3276,  -891.006531,       914.75,   453.990509
   3277,  -904.827026,       914.75,   425.779297
   3278,  -917.754639,       914.75,   397.147888
   3279,  -929.776489,       914.75,   368.124542
   3280,  -940.880798,       914.75,   338.737915
   3281,  -951.056519,       914.75,   309.016998
   3282,  -960.293701,       914.75,   278.991119
   3283,  -968.583191,       914.75,    248.68988
   3284,  -975.916748,       914.75,   218.143234
   3285,  -982.287231,       914.75,   187.381317
   3286,  -987.688354,       914.75,   156.434464
   3287,  -992.114685,       914.75,   125.333237
   3288,  -995.561951,       914.75,   94.1083145
   3289,  -998.026733,       914.75,   62.7905197
   3290,  -999.506531,       914.75,    31.410759
   3291,   999.506531,        922.5,    31.410759
   3292,   998.026733,        922.5,   62.7905197
   3293,   995.561951,        922.5,   94.1083145
   3294,   992.114685,        922.5,   125.333237
   3295,   987.688354,        922.5,   156.434464
   3296,   982.287231,        922.5,   187.381317
   3297,   975.916748,        922.5,   218.143234
   3298,   968.583191,        922.5,    248.68988
   3299,   960.293701,        922.5,   278.991119
   3300,   951.056519,        922.5,   309.016998
   3301,   940.880798,        922.5,   338.737915
   3302,   929.776489,        922.5,   368.124542
   3303,   917.754639,        922.5,   397.147888
   3304,   904.827026,        922.5,   425.779297
   3305,   891.006531,        922.5,   453.990509
   3306,   876.306702,        922.5,   481.753662
   3307,   860.742004,        922.5,   509.041412
   3308,   844.327942,        922.5,   535.826782
   3309,   827.080566,        922.5,   562.083374
   3310,   809.016968,        922.5,   587.785278
   3311,   790.155029,        922.5,   612.907043
   3312,   770.513245,        922.5,   637.424011
   3313,   750.111084,        922.5,    661.31189
   3314,   728.968628,        922.5,   684.547119
   3315,   707.106812,        922.5,   707.106812
   3316,   684.547119,        922.5,   728.968628
   3317,    661.31189,        922.5,   750.111084
   3318,   637.424011,        922.5,   770.513245
   3319,   612.907043,        922.5,   790.155029
   3320,   587.785278,        922.5,   809.016968
   3321,   562.083374,        922.5,   827.080566
   3322,   535.826782,        922.5,   844.327942
   3323,   509.041412,        922.5,   860.742004
   3324,   481.753662,        922.5,   876.306702
   3325,   453.990509,        922.5,   891.006531
   3326,   425.779297,        922.5,   904.827026
   3327,   397.147888,        922.5,   917.754639
   3328,   368.124542,        922.5,   929.776489
   3329,   338.737915,        922.5,   940.880798
   3330,   309.016998,        922.5,   951.056519
   3331,   278.991119,        922.5,   960.293701
   3332,    248.68988,        922.5,   968.583191
   3333,   218.143234,        922.5,   975.916748
   3334,   187.381317,        922.5,   982.287231
   3335,   156.434464,        922.5,   987.688354
   3336,   125.333237,        922.5,   992.114685
   3337,   94.1083145,        922.5,   995.561951
   3338,   62.7905197,        922.5,   998.026733
   3339,    31.410759,        922.5,   999.506531
   3340,           0.,        922.5,        1000.
   3341,   -31.410759,        922.5,   999.506531
   3342,  -62.7905197,        922.5,   998.026733
   3343,  -94.1083145,        922.5,   995.561951
   3344,  -125.333237,        922.5,   992.114685
   3345,  -156.434464,        922.5,   987.688354
   3346,  -187.381317,        922.5,   982.287231
   3347,  -218.143234,        922.5,   975.916748
   3348,   -248.68988,        922.5,   968.583191
   3349,  -278.991119,        922.5,   960.293701
   3350,  -309.016998,        922.5,   951.056519
   3351,  -338.737915,        922.5,   940.880798
   3352,  -368.124542,        922.5,   929.776489
   3353,  -397.147888,        922.5,   917.754639
   3354,  -425.779297,        922.5,   904.827026
   3355,  -453.990509,        922.5,   891.006531
   3356,  -481.753662,        922.5,   876.306702
   3357,  -509.041412,        922.5,   860.742004
   3358,  -535.826782,        922.5,   844.327942
   3359,  -562.083374,        922.5,   827.080566
   3360,  -587.785278,        922.5,   809.016968
   3361,  -612.907043,        922.5,   790.155029
   3362,  -637.424011,        922.5,   770.513245
   3363,   -661.31189,        922.5,   750.111084
   3364,  -684.547119,        922.5,   728.968628
   3365,  -707.106812,        922.5,   707.106812
   3366,  -728.968628,        922.5,   684.547119
   3367,  -750.111084,        922.5,    661.31189
   3368,  -770.513245,        922.5,   637.424011
   3369,  -790.155029,        922.5,   612.907043
   3370,  -809.016968,        922.5,   587.785278
   3371,  -827.080566,        922.5,   562.083374
   3372,  -844.327942,        922.5,   535.826782
   3373,  -860.742004,        922.5,   509.041412
   3374,  -876.306702,        922.5,   481.753662
   3375,  -891.006531,        922.5,   453.990509
   3376,  -904.827026,        922.5,   425.779297
   3377,  -917.754639,        922.5,   397.147888
   3378,  -929.776489,        922.5,   368.124542
   3379,  -940.880798,        922.5,   338.737915
   3380,  -951.056519,        922.5,   309.016998
   3381,  -960.293701,        922.5,   278.991119
   3382,  -968.583191,        922.5,    248.68988
   3383,  -975.916748,        922.5,   218.143234
   3384,  -982.287231,        922.5,   187.381317
   3385,  -987.688354,        922.5,   156.434464
   3386,  -992.114685,        922.5,   125.333237
   3387,  -995.561951,        922.5,   94.1083145
   3388,  -998.026733,        922.5,   62.7905197
   3389,  -999.506531,        922.5,    31.410759
   3390,   999.506531,       930.25,    31.410759
   3391,   998.026733,       930.25,   62.7905197
   3392,   995.561951,       930.25,   94.1083145
   3393,   992.114685,       930.25,   125.333237
   3394,   987.688354,       930.25,   156.434464
   3395,   982.287231,       930.25,   187.381317
   3396,   975.916748,       930.25,   218.143234
   3397,   968.583191,       930.25,    248.68988
   3398,   960.293701,       930.25,   278.991119
   3399,   951.056519,       930.25,   309.016998
   3400,   940.880798,       930.25,   338.737915
   3401,   929.776489,       930.25,   368.124542
   3402,   917.754639,       930.25,   397.147888
   3403,   904.827026,       930.25,   425.779297
   3404,   891.006531,       930.25,   453.990509
   3405,   876.306702,       930.25,   481.753662
   3406,   860.742004,       930.25,   509.041412
   3407,   844.327942,       930.25,   535.826782
   3408,   827.080566,       930.25,   562.083374
   3409,   809.016968,       930.25,   587.785278
   3410,   790.155029,       930.25,   612.907043
   3411,   770.513245,       930.25,   637.424011
   3412,   750.111084,       930.25,    661.31189
   3413,   728.968628,       930.25,   684.547119
   3414,   707.106812,       930.25,   707.106812
   3415,   684.547119,       930.25,   728.968628
   3416,    661.31189,       930.25,   750.111084
   3417,   637.424011,       930.25,   770.513245
   3418,   612.907043,       930.25,   790.155029
   3419,   587.785278,       930.25,   809.016968
   3420,   562.083374,       930.25,   827.080566
   3421,   535.826782,       930.25,   844.327942
   3422,   509.041412,       930.25,   860.742004
   3423,   481.753662,       930.25,   876.306702
   3424,   453.990509,       930.25,   891.006531
   3425,   425.779297,       930.25,   904.827026
   3426,   397.147888,       930.25,   917.754639
   3427,   368.124542,       930.25,   929.776489
   3428,   338.737915,       930.25,   940.880798
   3429,   309.016998,       930.25,   951.056519
   3430,   278.991119,       930.25,   960.293701
   3431,    248.68988,       930.25,   968.583191
   3432,   218.143234,       930.25,   975.916748
   3433,   187.381317,       930.25,   982.287231
   3434,   156.434464,       930.25,   987.688354
   3435,   125.333237,       930.25,   992.114685
   3436,   94.1083145,       930.25,   995.561951
   3437,   62.7905197,       930.25,   998.026733
   3438,    31.410759,       930.25,   999.506531
   3439,           0.,       930.25,        1000.
   3440,   -31.410759,       930.25,   999.506531
   3441,  -62.7905197,       930.25,   998.026733
   3442,  -94.1083145,       930.25,   995.561951
   3443,  -125.333237,       930.25,   992.114685
   3444,  -156.434464,       930.25,   987.688354
   3445,  -187.381317,       930.25,   982.287231
   3446,  -218.143234,       930.25,   975.916748
   3447,   -248.68988,       930.25,   968.583191
   3448,  -278.991119,       930.25,   960.293701
   3449,  -309.016998,       930.25,   951.056519
   3450,  -338.737915,       930.25,   940.880798
   3451,  -368.124542,       930.25,   929.776489
   3452,  -397.147888,       930.25,   917.754639
   3453,  -425.779297,       930.25,   904.827026
   3454,  -453.990509,       930.25,   891.006531
   3455,  -481.753662,       930.25,   876.306702
   3456,  -509.041412,       930.25,   860.742004
   3457,  -535.826782,       930.25,   844.327942
   3458,  -562.083374,       930.25,   827.080566
   3459,  -587.785278,       930.25,   809.016968
   3460,  -612.907043,       930.25,   790.155029
   3461,  -637.424011,       930.25,   770.513245
   3462,   -661.31189,       930.25,   750.111084
   3463,  -684.547119,       930.25,   728.968628
   3464,  -707.106812,       930.25,   707.106812
   3465,  -728.968628,       930.25,   684.547119
   3466,  -750.111084,       930.25,    661.31189
   3467,  -770.513245,       930.25,   637.424011
   3468,  -790.155029,       930.25,   612.907043
   3469,  -809.016968,       930.25,   587.785278
   3470,  -827.080566,       930.25,   562.083374
   3471,  -844.327942,       930.25,   535.826782
   3472,  -860.742004,       930.25,   509.041412
   3473,  -876.306702,       930.25,   481.753662
   3474,  -891.006531,       930.25,   453.990509
   3475,  -904.827026,       930.25,   425.779297
   3476,  -917.754639,       930.25,   397.147888
   3477,  -929.776489,       930.25,   368.124542
   3478,  -940.880798,       930.25,   338.737915
   3479,  -951.056519,       930.25,   309.016998
   3480,  -960.293701,       930.25,   278.991119
   3481,  -968.583191,       930.25,    248.68988
   3482,  -975.916748,       930.25,   218.143234
   3483,  -982.287231,       930.25,   187.381317
   3484,  -987.688354,       930.25,   156.434464
   3485,  -992.114685,       930.25,   125.333237
   3486,  -995.561951,       930.25,   94.1083145
   3487,  -998.026733,       930.25,   62.7905197
   3488,  -999.506531,       930.25,    31.410759
   3489,   999.506531,         938.,    31.410759
   3490,   998.026733,         938.,   62.7905197
   3491,   995.561951,         938.,   94.1083145
   3492,   992.114685,         938.,   125.333237
   3493,   987.688354,         938.,   156.434464
   3494,   982.287231,         938.,   187.381317
   3495,   975.916748,         938.,   218.143234
   3496,   968.583191,         938.,    248.68988
   3497,   960.293701,         938.,   278.991119
   3498,   951.056519,         938.,   309.016998
   3499,   940.880798,         938.,   338.737915
   3500,   929.776489,         938.,   368.124542
   3501,   917.754639,         938.,   397.147888
   3502,   904.827026,         938.,   425.779297
   3503,   891.006531,         938.,   453.990509
   3504,   876.306702,         938.,   481.753662
   3505,   860.742004,         938.,   509.041412
   3506,   844.327942,         938.,   535.826782
   3507,   827.080566,         938.,   562.083374
   3508,   809.016968,         938.,   587.785278
   3509,   790.155029,         938.,   612.907043
   3510,   770.513245,         938.,   637.424011
   3511,   750.111084,         938.,    661.31189
   3512,   728.968628,         938.,   684.547119
   3513,   707.106812,         938.,   707.106812
   3514,   684.547119,         938.,   728.968628
   3515,    661.31189,         938.,   750.111084
   3516,   637.424011,         938.,   770.513245
   3517,   612.907043,         938.,   790.155029
   3518,   587.785278,         938.,   809.016968
   3519,   562.083374,         938.,   827.080566
   3520,   535.826782,         938.,   844.327942
   3521,   509.041412,         938.,   860.742004
   3522,   481.753662,         938.,   876.306702
   3523,   453.990509,         938.,   891.006531
   3524,   425.779297,         938.,   904.827026
   3525,   397.147888,         938.,   917.754639
   3526,   368.124542,         938.,   929.776489
   3527,   338.737915,         938.,   940.880798
   3528,   309.016998,         938.,   951.056519
   3529,   278.991119,         938.,   960.293701
   3530,    248.68988,         938.,   968.583191
   3531,   218.143234,         938.,   975.916748
   3532,   187.381317,         938.,   982.287231
   3533,   156.434464,         938.,   987.688354
   3534,   125.333237,         938.,   992.114685
   3535,   94.1083145,         938.,   995.561951
   3536,   62.7905197,         938.,   998.026733
   3537,    31.410759,         938.,   999.506531
   3538,           0.,         938.,        1000.
   3539,   -31.410759,         938.,   999.506531
   3540,  -62.7905197,         938.,   998.026733
   3541,  -94.1083145,         938.,   995.561951
   3542,  -125.333237,         938.,   992.114685
   3543,  -156.434464,         938.,   987.688354
   3544,  -187.381317,         938.,   982.287231
   3545,  -218.143234,         938.,   975.916748
   3546,   -248.68988,         938.,   968.583191
   3547,  -278.991119,         938.,   960.293701
   3548,  -309.016998,         938.,   951.056519
   3549,  -338.737915,         938.,   940.880798
   3550,  -368.124542,         938.,   929.776489
   3551,  -397.147888,         938.,   917.754639
   3552,  -425.779297,         938.,   904.827026
   3553,  -453.990509,         938.,   891.006531
   3554,  -481.753662,         938.,   876.306702
   3555,  -509.041412,         938.,   860.742004
   3556,  -535.826782,         938.,   844.327942
   3557,  -562.083374,         938.,   827.080566
   3558,  -587.785278,         938.,   809.016968
   3559,  -612.907043,         938.,   790.155029
   3560,  -637.424011,         938.,   770.513245
   3561,   -661.31189,         938.,   750.111084
   3562,  -684.547119,         938.,   728.968628
   3563,  -707.106812,         938.,   707.106812
   3564,  -728.968628,         938.,   684.547119
   3565,  -750.111084,         938.,    661.31189
   3566,  -770.513245,         938.,   637.424011
   3567,  -790.155029,         938.,   612.907043
   3568,  -809.016968,         938.,   587.785278
   3569,  -827.080566,         938.,   562.083374
   3570,  -844.327942,         938.,   535.826782
   3571,  -860.742004,         938.,   509.041412
   3572,  -876.306702,         938.,   481.753662
   3573,  -891.006531,         938.,   453.990509
   3574,  -904.827026,         938.,   425.779297
   3575,  -917.754639,         938.,   397.147888
   3576,  -929.776489,         938.,   368.124542
   3577,  -940.880798,         938.,   338.737915
   3578,  -951.056519,         938.,   309.016998
   3579,  -960.293701,         938.,   278.991119
   3580,  -968.583191,         938.,    248.68988
   3581,  -975.916748,         938.,   218.143234
   3582,  -982.287231,         938.,   187.381317
   3583,  -987.688354,         938.,   156.434464
   3584,  -992.114685,         938.,   125.333237
   3585,  -995.561951,         938.,   94.1083145
   3586,  -998.026733,         938.,   62.7905197
   3587,  -999.506531,         938.,    31.410759
   3588,   999.506531,       945.75,    31.410759
   3589,   998.026733,       945.75,   62.7905197
   3590,   995.561951,       945.75,   94.1083145
   3591,   992.114685,       945.75,   125.333237
   3592,   987.688354,       945.75,   156.434464
   3593,   982.287231,       945.75,   187.381317
   3594,   975.916748,       945.75,   218.143234
   3595,   968.583191,       945.75,    248.68988
   3596,   960.293701,       945.75,   278.991119
   3597,   951.056519,       945.75,   309.016998
   3598,   940.880798,       945.75,   338.737915
   3599,   929.776489,       945.75,   368.124542
   3600,   917.754639,       945.75,   397.147888
   3601,   904.827026,       945.75,   425.779297
   3602,   891.006531,       945.75,   453.990509
   3603,   876.306702,       945.75,   481.753662
   3604,   860.742004,       945.75,   509.041412
   3605,   844.327942,       945.75,   535.826782
   3606,   827.080566,       945.75,   562.083374
   3607,   809.016968,       945.75,   587.785278
   3608,   790.155029,       945.75,   612.907043
   3609,   770.513245,       945.75,   637.424011
   3610,   750.111084,       945.75,    661.31189
   3611,   728.968628,       945.75,   684.547119
   3612,   707.106812,       945.75,   707.106812
   3613,   684.547119,       945.75,   728.968628
   3614,    661.31189,       945.75,   750.111084
   3615,   637.424011,       945.75,   770.513245
   3616,   612.907043,       945.75,   790.155029
   3617,   587.785278,       945.75,   809.016968
   3618,   562.083374,       945.75,   827.080566
   3619,   535.826782,       945.75,   844.327942
   3620,   509.041412,       945.75,   860.742004
   3621,   481.753662,       945.75,   876.306702
   3622,   453.990509,       945.75,   891.006531
   3623,   425.779297,       945.75,   904.827026
   3624,   397.147888,       945.75,   917.754639
   3625,   368.124542,       945.75,   929.776489
   3626,   338.737915,       945.75,   940.880798
   3627,   309.016998,       945.75,   951.056519
   3628,   278.991119,       945.75,   960.293701
   3629,    248.68988,       945.75,   968.583191
   3630,   218.143234,       945.75,   975.916748
   3631,   187.381317,       945.75,   982.287231
   3632,   156.434464,       945.75,   987.688354
   3633,   125.333237,       945.75,   992.114685
   3634,   94.1083145,       945.75,   995.561951
   3635,   62.7905197,       945.75,   998.026733
   3636,    31.410759,       945.75,   999.506531
   3637,           0.,       945.75,        1000.
   3638,   -31.410759,       945.75,   999.506531
   3639,  -62.7905197,       945.75,   998.026733
   3640,  -94.1083145,       945.75,   995.561951
   3641,  -125.333237,       945.75,   992.114685
   3642,  -156.434464,       945.75,   987.688354
   3643,  -187.381317,       945.75,   982.287231
   3644,  -218.143234,       945.75,   975.916748
   3645,   -248.68988,       945.75,   968.583191
   3646,  -278.991119,       945.75,   960.293701
   3647,  -309.016998,       945.75,   951.056519
   3648,  -338.737915,       945.75,   940.880798
   3649,  -368.124542,       945.75,   929.776489
   3650,  -397.147888,       945.75,   917.754639
   3651,  -425.779297,       945.75,   904.827026
   3652,  -453.990509,       945.75,   891.006531
   3653,  -481.753662,       945.75,   876.306702
   3654,  -509.041412,       945.75,   860.742004
   3655,  -535.826782,       945.75,   844.327942
   3656,  -562.083374,       945.75,   827.080566
   3657,  -587.785278,       945.75,   809.016968
   3658,  -612.907043,       945.75,   790.155029
   3659,  -637.424011,       945.75,   770.513245
   3660,   -661.31189,       945.75,   750.111084
   3661,  -684.547119,       945.75,   728.968628
   3662,  -707.106812,       945.75,   707.106812
   3663,  -728.968628,       945.75,   684.547119
   3664,  -750.111084,       945.75,    661.31189
   3665,  -770.513245,       945.75,   637.424011
   3666,  -790.155029,       945.75,   612.907043
   3667,  -809.016968,       945.75,   587.785278
   3668,  -827.080566,       945.75,   562.083374
   3669,  -844.327942,       945.75,   535.826782
   3670,  -860.742004,       945.75,   509.041412
   3671,  -876.306702,       945.75,   481.753662
   3672,  -891.006531,       945.75,   453.990509
   3673,  -904.827026,       945.75,   425.779297
   3674,  -917.754639,       945.75,   397.147888
   3675,  -929.776489,       945.75,   368.124542
   3676,  -940.880798,       945.75,   338.737915
   3677,  -951.056519,       945.75,   309.016998
   3678,  -960.293701,       945.75,   278.991119
   3679,  -968.583191,       945.75,    248.68988
   3680,  -975.916748,       945.75,   218.143234
   3681,  -982.287231,       945.75,   187.381317
   3682,  -987.688354,       945.75,   156.434464
   3683,  -992.114685,       945.75,   125.333237
   3684,  -995.561951,       945.75,   94.1083145
   3685,  -998.026733,       945.75,   62.7905197
   3686,  -999.506531,       945.75,    31.410759
   3687,   999.506531,        953.5,    31.410759
   3688,   998.026733,        953.5,   62.7905197
   3689,   995.561951,        953.5,   94.1083145
   3690,   992.114685,        953.5,   125.333237
   3691,   987.688354,        953.5,   156.434464
   3692,   982.287231,        953.5,   187.381317
   3693,   975.916748,        953.5,   218.143234
   3694,   968.583191,        953.5,    248.68988
   3695,   960.293701,        953.5,   278.991119
   3696,   951.056519,        953.5,   309.016998
   3697,   940.880798,        953.5,   338.737915
   3698,   929.776489,        953.5,   368.124542
   3699,   917.754639,        953.5,   397.147888
   3700,   904.827026,        953.5,   425.779297
   3701,   891.006531,        953.5,   453.990509
   3702,   876.306702,        953.5,   481.753662
   3703,   860.742004,        953.5,   509.041412
   3704,   844.327942,        953.5,   535.826782
   3705,   827.080566,        953.5,   562.083374
   3706,   809.016968,        953.5,   587.785278
   3707,   790.155029,        953.5,   612.907043
   3708,   770.513245,        953.5,   637.424011
   3709,   750.111084,        953.5,    661.31189
   3710,   728.968628,        953.5,   684.547119
   3711,   707.106812,        953.5,   707.106812
   3712,   684.547119,        953.5,   728.968628
   3713,    661.31189,        953.5,   750.111084
   3714,   637.424011,        953.5,   770.513245
   3715,   612.907043,        953.5,   790.155029
   3716,   587.785278,        953.5,   809.016968
   3717,   562.083374,        953.5,   827.080566
   3718,   535.826782,        953.5,   844.327942
   3719,   509.041412,        953.5,   860.742004
   3720,   481.753662,        953.5,   876.306702
   3721,   453.990509,        953.5,   891.006531
   3722,   425.779297,        953.5,   904.827026
   3723,   397.147888,        953.5,   917.754639
   3724,   368.124542,        953.5,   929.776489
   3725,   338.737915,        953.5,   940.880798
   3726,   309.016998,        953.5,   951.056519
   3727,   278.991119,        953.5,   960.293701
   3728,    248.68988,        953.5,   968.583191
   3729,   218.143234,        953.5,   975.916748
   3730,   187.381317,        953.5,   982.287231
   3731,   156.434464,        953.5,   987.688354
   3732,   125.333237,        953.5,   992.114685
   3733,   94.1083145,        953.5,   995.561951
   3734,   62.7905197,        953.5,   998.026733
   3735,    31.410759,        953.5,   999.506531
   3736,           0.,        953.5,        1000.
   3737,   -31.410759,        953.5,   999.506531
   3738,  -62.7905197,        953.5,   998.026733
   3739,  -94.1083145,        953.5,   995.561951
   3740,  -125.333237,        953.5,   992.114685
   3741,  -156.434464,        953.5,   987.688354
   3742,  -187.381317,        953.5,   982.287231
   3743,  -218.143234,        953.5,   975.916748
   3744,   -248.68988,        953.5,   968.583191
   3745,  -278.991119,        953.5,   960.293701
   3746,  -309.016998,        953.5,   951.056519
   3747,  -338.737915,        953.5,   940.880798
   3748,  -368.124542,        953.5,   929.776489
   3749,  -397.147888,        953.5,   917.754639
   3750,  -425.779297,        953.5,   904.827026
   3751,  -453.990509,        953.5,   891.006531
   3752,  -481.753662,        953.5,   876.306702
   3753,  -509.041412,        953.5,   860.742004
   3754,  -535.826782,        953.5,   844.327942
   3755,  -562.083374,        953.5,   827.080566
   3756,  -587.785278,        953.5,   809.016968
   3757,  -612.907043,        953.5,   790.155029
   3758,  -637.424011,        953.5,   770.513245
   3759,   -661.31189,        953.5,   750.111084
   3760,  -684.547119,        953.5,   728.968628
   3761,  -707.106812,        953.5,   707.106812
   3762,  -728.968628,        953.5,   684.547119
   3763,  -750.111084,        953.5,    661.31189
   3764,  -770.513245,        953.5,   637.424011
   3765,  -790.155029,        953.5,   612.907043
   3766,  -809.016968,        953.5,   587.785278
   3767,  -827.080566,        953.5,   562.083374
   3768,  -844.327942,        953.5,   535.826782
   3769,  -860.742004,        953.5,   509.041412
   3770,  -876.306702,        953.5,   481.753662
   3771,  -891.006531,        953.5,   453.990509
   3772,  -904.827026,        953.5,   425.779297
   3773,  -917.754639,        953.5,   397.147888
   3774,  -929.776489,        953.5,   368.124542
   3775,  -940.880798,        953.5,   338.737915
   3776,  -951.056519,        953.5,   309.016998
   3777,  -960.293701,        953.5,   278.991119
   3778,  -968.583191,        953.5,    248.68988
   3779,  -975.916748,        953.5,   218.143234
   3780,  -982.287231,        953.5,   187.381317
   3781,  -987.688354,        953.5,   156.434464
   3782,  -992.114685,        953.5,   125.333237
   3783,  -995.561951,        953.5,   94.1083145
   3784,  -998.026733,        953.5,   62.7905197
   3785,  -999.506531,        953.5,    31.410759
   3786,   999.506531,       961.25,    31.410759
   3787,   998.026733,       961.25,   62.7905197
   3788,   995.561951,       961.25,   94.1083145
   3789,   992.114685,       961.25,   125.333237
   3790,   987.688354,       961.25,   156.434464
   3791,   982.287231,       961.25,   187.381317
   3792,   975.916748,       961.25,   218.143234
   3793,   968.583191,       961.25,    248.68988
   3794,   960.293701,       961.25,   278.991119
   3795,   951.056519,       961.25,   309.016998
   3796,   940.880798,       961.25,   338.737915
   3797,   929.776489,       961.25,   368.124542
   3798,   917.754639,       961.25,   397.147888
   3799,   904.827026,       961.25,   425.779297
   3800,   891.006531,       961.25,   453.990509
   3801,   876.306702,       961.25,   481.753662
   3802,   860.742004,       961.25,   509.041412
   3803,   844.327942,       961.25,   535.826782
   3804,   827.080566,       961.25,   562.083374
   3805,   809.016968,       961.25,   587.785278
   3806,   790.155029,       961.25,   612.907043
   3807,   770.513245,       961.25,   637.424011
   3808,   750.111084,       961.25,    661.31189
   3809,   728.968628,       961.25,   684.547119
   3810,   707.106812,       961.25,   707.106812
   3811,   684.547119,       961.25,   728.968628
   3812,    661.31189,       961.25,   750.111084
   3813,   637.424011,       961.25,   770.513245
   3814,   612.907043,       961.25,   790.155029
   3815,   587.785278,       961.25,   809.016968
   3816,   562.083374,       961.25,   827.080566
   3817,   535.826782,       961.25,   844.327942
   3818,   509.041412,       961.25,   860.742004
   3819,   481.753662,       961.25,   876.306702
   3820,   453.990509,       961.25,   891.006531
   3821,   425.779297,       961.25,   904.827026
   3822,   397.147888,       961.25,   917.754639
   3823,   368.124542,       961.25,   929.776489
   3824,   338.737915,       961.25,   940.880798
   3825,   309.016998,       961.25,   951.056519
   3826,   278.991119,       961.25,   960.293701
   3827,    248.68988,       961.25,   968.583191
   3828,   218.143234,       961.25,   975.916748
   3829,   187.381317,       961.25,   982.287231
   3830,   156.434464,       961.25,   987.688354
   3831,   125.333237,       961.25,   992.114685
   3832,   94.1083145,       961.25,   995.561951
   3833,   62.7905197,       961.25,   998.026733
   3834,    31.410759,       961.25,   999.506531
   3835,           0.,       961.25,        1000.
   3836,   -31.410759,       961.25,   999.506531
   3837,  -62.7905197,       961.25,   998.026733
   3838,  -94.1083145,       961.25,   995.561951
   3839,  -125.333237,       961.25,   992.114685
   3840,  -156.434464,       961.25,   987.688354
   3841,  -187.381317,       961.25,   982.287231
   3842,  -218.143234,       961.25,   975.916748
   3843,   -248.68988,       961.25,   968.583191
   3844,  -278.991119,       961.25,   960.293701
   3845,  -309.016998,       961.25,   951.056519
   3846,  -338.737915,       961.25,   940.880798
   3847,  -368.124542,       961.25,   929.776489
   3848,  -397.147888,       961.25,   917.754639
   3849,  -425.779297,       961.25,   904.827026
   3850,  -453.990509,       961.25,   891.006531
   3851,  -481.753662,       961.25,   876.306702
   3852,  -509.041412,       961.25,   860.742004
   3853,  -535.826782,       961.25,   844.327942
   3854,  -562.083374,       961.25,   827.080566
   3855,  -587.785278,       961.25,   809.016968
   3856,  -612.907043,       961.25,   790.155029
   3857,  -637.424011,       961.25,   770.513245
   3858,   -661.31189,       961.25,   750.111084
   3859,  -684.547119,       961.25,   728.968628
   3860,  -707.106812,       961.25,   707.106812
   3861,  -728.968628,       961.25,   684.547119
   3862,  -750.111084,       961.25,    661.31189
   3863,  -770.513245,       961.25,   637.424011
   3864,  -790.155029,       961.25,   612.907043
   3865,  -809.016968,       961.25,   587.785278
   3866,  -827.080566,       961.25,   562.083374
   3867,  -844.327942,       961.25,   535.826782
   3868,  -860.742004,       961.25,   509.041412
   3869,  -876.306702,       961.25,   481.753662
   3870,  -891.006531,       961.25,   453.990509
   3871,  -904.827026,       961.25,   425.779297
   3872,  -917.754639,       961.25,   397.147888
   3873,  -929.776489,       961.25,   368.124542
   3874,  -940.880798,       961.25,   338.737915
   3875,  -951.056519,       961.25,   309.016998
   3876,  -960.293701,       961.25,   278.991119
   3877,  -968.583191,       961.25,    248.68988
   3878,  -975.916748,       961.25,   218.143234
   3879,  -982.287231,       961.25,   187.381317
   3880,  -987.688354,       961.25,   156.434464
   3881,  -992.114685,       961.25,   125.333237
   3882,  -995.561951,       961.25,   94.1083145
   3883,  -998.026733,       961.25,   62.7905197
   3884,  -999.506531,       961.25,    31.410759
   3885,   999.506531,         969.,    31.410759
   3886,   998.026733,         969.,   62.7905197
   3887,   995.561951,         969.,   94.1083145
   3888,   992.114685,         969.,   125.333237
   3889,   987.688354,         969.,   156.434464
   3890,   982.287231,         969.,   187.381317
   3891,   975.916748,         969.,   218.143234
   3892,   968.583191,         969.,    248.68988
   3893,   960.293701,         969.,   278.991119
   3894,   951.056519,         969.,   309.016998
   3895,   940.880798,         969.,   338.737915
   3896,   929.776489,         969.,   368.124542
   3897,   917.754639,         969.,   397.147888
   3898,   904.827026,         969.,   425.779297
   3899,   891.006531,         969.,   453.990509
   3900,   876.306702,         969.,   481.753662
   3901,   860.742004,         969.,   509.041412
   3902,   844.327942,         969.,   535.826782
   3903,   827.080566,         969.,   562.083374
   3904,   809.016968,         969.,   587.785278
   3905,   790.155029,         969.,   612.907043
   3906,   770.513245,         969.,   637.424011
   3907,   750.111084,         969.,    661.31189
   3908,   728.968628,         969.,   684.547119
   3909,   707.106812,         969.,   707.106812
   3910,   684.547119,         969.,   728.968628
   3911,    661.31189,         969.,   750.111084
   3912,   637.424011,         969.,   770.513245
   3913,   612.907043,         969.,   790.155029
   3914,   587.785278,         969.,   809.016968
   3915,   562.083374,         969.,   827.080566
   3916,   535.826782,         969.,   844.327942
   3917,   509.041412,         969.,   860.742004
   3918,   481.753662,         969.,   876.306702
   3919,   453.990509,         969.,   891.006531
   3920,   425.779297,         969.,   904.827026
   3921,   397.147888,         969.,   917.754639
   3922,   368.124542,         969.,   929.776489
   3923,   338.737915,         969.,   940.880798
   3924,   309.016998,         969.,   951.056519
   3925,   278.991119,         969.,   960.293701
   3926,    248.68988,         969.,   968.583191
   3927,   218.143234,         969.,   975.916748
   3928,   187.381317,         969.,   982.287231
   3929,   156.434464,         969.,   987.688354
   3930,   125.333237,         969.,   992.114685
   3931,   94.1083145,         969.,   995.561951
   3932,   62.7905197,         969.,   998.026733
   3933,    31.410759,         969.,   999.506531
   3934,           0.,         969.,        1000.
   3935,   -31.410759,         969.,   999.506531
   3936,  -62.7905197,         969.,   998.026733
   3937,  -94.1083145,         969.,   995.561951
   3938,  -125.333237,         969.,   992.114685
   3939,  -156.434464,         969.,   987.688354
   3940,  -187.381317,         969.,   982.287231
   3941,  -218.143234,         969.,   975.916748
   3942,   -248.68988,         969.,   968.583191
   3943,  -278.991119,         969.,   960.293701
   3944,  -309.016998,         969.,   951.056519
   3945,  -338.737915,         969.,   940.880798
   3946,  -368.124542,         969.,   929.776489
   3947,  -397.147888,         969.,   917.754639
   3948,  -425.779297,         969.,   904.827026
   3949,  -453.990509,         969.,   891.006531
   3950,  -481.753662,         969.,   876.306702
   3951,  -509.041412,         969.,   860.742004
   3952,  -535.826782,         969.,   844.327942
   3953,  -562.083374,         969.,   827.080566
   3954,  -587.785278,         969.,   809.016968
   3955,  -612.907043,         969.,   790.155029
   3956,  -637.424011,         969.,   770.513245
   3957,   -661.31189,         969.,   750.111084
   3958,  -684.547119,         969.,   728.968628
   3959,  -707.106812,         969.,   707.106812
   3960,  -728.968628,         969.,   684.547119
   3961,  -750.111084,         969.,    661.31189
   3962,  -770.513245,         969.,   637.424011
   3963,  -790.155029,         969.,   612.907043
   3964,  -809.016968,         969.,   587.785278
   3965,  -827.080566,         969.,   562.083374
   3966,  -844.327942,         969.,   535.826782
   3967,  -860.742004,         969.,   509.041412
   3968,  -876.306702,         969.,   481.753662
   3969,  -891.006531,         969.,   453.990509
   3970,  -904.827026,         969.,   425.779297
   3971,  -917.754639,         969.,   397.147888
   3972,  -929.776489,         969.,   368.124542
   3973,  -940.880798,         969.,   338.737915
   3974,  -951.056519,         969.,   309.016998
   3975,  -960.293701,         969.,   278.991119
   3976,  -968.583191,         969.,    248.68988
   3977,  -975.916748,         969.,   218.143234
   3978,  -982.287231,         969.,   187.381317
   3979,  -987.688354,         969.,   156.434464
   3980,  -992.114685,         969.,   125.333237
   3981,  -995.561951,         969.,   94.1083145
   3982,  -998.026733,         969.,   62.7905197
   3983,  -999.506531,         969.,    31.410759
   3984,   999.506531,       976.75,    31.410759
   3985,   998.026733,       976.75,   62.7905197
   3986,   995.561951,       976.75,   94.1083145
   3987,   992.114685,       976.75,   125.333237
   3988,   987.688354,       976.75,   156.434464
   3989,   982.287231,       976.75,   187.381317
   3990,   975.916748,       976.75,   218.143234
   3991,   968.583191,       976.75,    248.68988
   3992,   960.293701,       976.75,   278.991119
   3993,   951.056519,       976.75,   309.016998
   3994,   940.880798,       976.75,   338.737915
   3995,   929.776489,       976.75,   368.124542
   3996,   917.754639,       976.75,   397.147888
   3997,   904.827026,       976.75,   425.779297
   3998,   891.006531,       976.75,   453.990509
   3999,   876.306702,       976.75,   481.753662
   4000,   860.742004,       976.75,   509.041412
   4001,   844.327942,       976.75,   535.826782
   4002,   827.080566,       976.75,   562.083374
   4003,   809.016968,       976.75,   587.785278
   4004,   790.155029,       976.75,   612.907043
   4005,   770.513245,       976.75,   637.424011
   4006,   750.111084,       976.75,    661.31189
   4007,   728.968628,       976.75,   684.547119
   4008,   707.106812,       976.75,   707.106812
   4009,   684.547119,       976.75,   728.968628
   4010,    661.31189,       976.75,   750.111084
   4011,   637.424011,       976.75,   770.513245
   4012,   612.907043,       976.75,   790.155029
   4013,   587.785278,       976.75,   809.016968
   4014,   562.083374,       976.75,   827.080566
   4015,   535.826782,       976.75,   844.327942
   4016,   509.041412,       976.75,   860.742004
   4017,   481.753662,       976.75,   876.306702
   4018,   453.990509,       976.75,   891.006531
   4019,   425.779297,       976.75,   904.827026
   4020,   397.147888,       976.75,   917.754639
   4021,   368.124542,       976.75,   929.776489
   4022,   338.737915,       976.75,   940.880798
   4023,   309.016998,       976.75,   951.056519
   4024,   278.991119,       976.75,   960.293701
   4025,    248.68988,       976.75,   968.583191
   4026,   218.143234,       976.75,   975.916748
   4027,   187.381317,       976.75,   982.287231
   4028,   156.434464,       976.75,   987.688354
   4029,   125.333237,       976.75,   992.114685
   4030,   94.1083145,       976.75,   995.561951
   4031,   62.7905197,       976.75,   998.026733
   4032,    31.410759,       976.75,   999.506531
   4033,           0.,       976.75,        1000.
   4034,   -31.410759,       976.75,   999.506531
   4035,  -62.7905197,       976.75,   998.026733
   4036,  -94.1083145,       976.75,   995.561951
   4037,  -125.333237,       976.75,   992.114685
   4038,  -156.434464,       976.75,   987.688354
   4039,  -187.381317,       976.75,   982.287231
   4040,  -218.143234,       976.75,   975.916748
   4041,   -248.68988,       976.75,   968.583191
   4042,  -278.991119,       976.75,   960.293701
   4043,  -309.016998,       976.75,   951.056519
   4044,  -338.737915,       976.75,   940.880798
   4045,  -368.124542,       976.75,   929.776489
   4046,  -397.147888,       976.75,   917.754639
   4047,  -425.779297,       976.75,   904.827026
   4048,  -453.990509,       976.75,   891.006531
   4049,  -481.753662,       976.75,   876.306702
   4050,  -509.041412,       976.75,   860.742004
   4051,  -535.826782,       976.75,   844.327942
   4052,  -562.083374,       976.75,   827.080566
   4053,  -587.785278,       976.75,   809.016968
   4054,  -612.907043,       976.75,   790.155029
   4055,  -637.424011,       976.75,   770.513245
   4056,   -661.31189,       976.75,   750.111084
   4057,  -684.547119,       976.75,   728.968628
   4058,  -707.106812,       976.75,   707.106812
   4059,  -728.968628,       976.75,   684.547119
   4060,  -750.111084,       976.75,    661.31189
   4061,  -770.513245,       976.75,   637.424011
   4062,  -790.155029,       976.75,   612.907043
   4063,  -809.016968,       976.75,   587.785278
   4064,  -827.080566,       976.75,   562.083374
   4065,  -844.327942,       976.75,   535.826782
   4066,  -860.742004,       976.75,   509.041412
   4067,  -876.306702,       976.75,   481.753662
   4068,  -891.006531,       976.75,   453.990509
   4069,  -904.827026,       976.75,   425.779297
   4070,  -917.754639,       976.75,   397.147888
   4071,  -929.776489,       976.75,   368.124542
   4072,  -940.880798,       976.75,   338.737915
   4073,  -951.056519,       976.75,   309.016998
   4074,  -960.293701,       976.75,   278.991119
   4075,  -968.583191,       976.75,    248.68988
   4076,  -975.916748,       976.75,   218.143234
   4077,  -982.287231,       976.75,   187.381317
   4078,  -987.688354,       976.75,   156.434464
   4079,  -992.114685,       976.75,   125.333237
   4080,  -995.561951,       976.75,   94.1083145
   4081,  -998.026733,       976.75,   62.7905197
   4082,  -999.506531,       976.75,    31.410759
   4083,   999.506531,        984.5,    31.410759
   4084,   998.026733,        984.5,   62.7905197
   4085,   995.561951,        984.5,   94.1083145
   4086,   992.114685,        984.5,   125.333237
   4087,   987.688354,        984.5,   156.434464
   4088,   982.287231,        984.5,   187.381317
   4089,   975.916748,        984.5,   218.143234
   4090,   968.583191,        984.5,    248.68988
   4091,   960.293701,        984.5,   278.991119
   4092,   951.056519,        984.5,   309.016998
   4093,   940.880798,        984.5,   338.737915
   4094,   929.776489,        984.5,   368.124542
   4095,   917.754639,        984.5,   397.147888
   4096,   904.827026,        984.5,   425.779297
   4097,   891.006531,        984.5,   453.990509
   4098,   876.306702,        984.5,   481.753662
   4099,   860.742004,        984.5,   509.041412
   4100,   844.327942,        984.5,   535.826782
   4101,   827.080566,        984.5,   562.083374
   4102,   809.016968,        984.5,   587.785278
   4103,   790.155029,        984.5,   612.907043
   4104,   770.513245,        984.5,   637.424011
   4105,   750.111084,        984.5,    661.31189
   4106,   728.968628,        984.5,   684.547119
   4107,   707.106812,        984.5,   707.106812
   4108,   684.547119,        984.5,   728.968628
   4109,    661.31189,        984.5,   750.111084
   4110,   637.424011,        984.5,   770.513245
   4111,   612.907043,        984.5,   790.155029
   4112,   587.785278,        984.5,   809.016968
   4113,   562.083374,        984.5,   827.080566
   4114,   535.826782,        984.5,   844.327942
   4115,   509.041412,        984.5,   860.742004
   4116,   481.753662,        984.5,   876.306702
   4117,   453.990509,        984.5,   891.006531
   4118,   425.779297,        984.5,   904.827026
   4119,   397.147888,        984.5,   917.754639
   4120,   368.124542,        984.5,   929.776489
   4121,   338.737915,        984.5,   940.880798
   4122,   309.016998,        984.5,   951.056519
   4123,   278.991119,        984.5,   960.293701
   4124,    248.68988,        984.5,   968.583191
   4125,   218.143234,        984.5,   975.916748
   4126,   187.381317,        984.5,   982.287231
   4127,   156.434464,        984.5,   987.688354
   4128,   125.333237,        984.5,   992.114685
   4129,   94.1083145,        984.5,   995.561951
   4130,   62.7905197,        984.5,   998.026733
   4131,    31.410759,        984.5,   999.506531
   4132,           0.,        984.5,        1000.
   4133,   -31.410759,        984.5,   999.506531
   4134,  -62.7905197,        984.5,   998.026733
   4135,  -94.1083145,        984.5,   995.561951
   4136,  -125.333237,        984.5,   992.114685
   4137,  -156.434464,        984.5,   987.688354
   4138,  -187.381317,        984.5,   982.287231
   4139,  -218.143234,        984.5,   975.916748
   4140,   -248.68988,        984.5,   968.583191
   4141,  -278.991119,        984.5,   960.293701
   4142,  -309.016998,        984.5,   951.056519
   4143,  -338.737915,        984.5,   940.880798
   4144,  -368.124542,        984.5,   929.776489
   4145,  -397.147888,        984.5,   917.754639
   4146,  -425.779297,        984.5,   904.827026
   4147,  -453.990509,        984.5,   891.006531
   4148,  -481.753662,        984.5,   876.306702
   4149,  -509.041412,        984.5,   860.742004
   4150,  -535.826782,        984.5,   844.327942
   4151,  -562.083374,        984.5,   827.080566
   4152,  -587.785278,        984.5,   809.016968
   4153,  -612.907043,        984.5,   790.155029
   4154,  -637.424011,        984.5,   770.513245
   4155,   -661.31189,        984.5,   750.111084
   4156,  -684.547119,        984.5,   728.968628
   4157,  -707.106812,        984.5,   707.106812
   4158,  -728.968628,        984.5,   684.547119
   4159,  -750.111084,        984.5,    661.31189
   4160,  -770.513245,        984.5,   637.424011
   4161,  -790.155029,        984.5,   612.907043
   4162,  -809.016968,        984.5,   587.785278
   4163,  -827.080566,        984.5,   562.083374
   4164,  -844.327942,        984.5,   535.826782
   4165,  -860.742004,        984.5,   509.041412
   4166,  -876.306702,        984.5,   481.753662
   4167,  -891.006531,        984.5,   453.990509
   4168,  -904.827026,        984.5,   425.779297
   4169,  -917.754639,        984.5,   397.147888
   4170,  -929.776489,        984.5,   368.124542
   4171,  -940.880798,        984.5,   338.737915
   4172,  -951.056519,        984.5,   309.016998
   4173,  -960.293701,        984.5,   278.991119
   4174,  -968.583191,        984.5,    248.68988
   4175,  -975.916748,        984.5,   218.143234
   4176,  -982.287231,        984.5,   187.381317
   4177,  -987.688354,        984.5,   156.434464
   4178,  -992.114685,        984.5,   125.333237
   4179,  -995.561951,        984.5,   94.1083145
   4180,  -998.026733,        984.5,   62.7905197
   4181,  -999.506531,        984.5,    31.410759
   4182,   999.506531,       992.25,    31.410759
   4183,   998.026733,       992.25,   62.7905197
   4184,   995.561951,       992.25,   94.1083145
   4185,   992.114685,       992.25,   125.333237
   4186,   987.688354,       992.25,   156.434464
   4187,   982.287231,       992.25,   187.381317
   4188,   975.916748,       992.25,   218.143234
   4189,   968.583191,       992.25,    248.68988
   4190,   960.293701,       992.25,   278.991119
   4191,   951.056519,       992.25,   309.016998
   4192,   940.880798,       992.25,   338.737915
   4193,   929.776489,       992.25,   368.124542
   4194,   917.754639,       992.25,   397.147888
   4195,   904.827026,       992.25,   425.779297
   4196,   891.006531,       992.25,   453.990509
   4197,   876.306702,       992.25,   481.753662
   4198,   860.742004,       992.25,   509.041412
   4199,   844.327942,       992.25,   535.826782
   4200,   827.080566,       992.25,   562.083374
   4201,   809.016968,       992.25,   587.785278
   4202,   790.155029,       992.25,   612.907043
   4203,   770.513245,       992.25,   637.424011
   4204,   750.111084,       992.25,    661.31189
   4205,   728.968628,       992.25,   684.547119
   4206,   707.106812,       992.25,   707.106812
   4207,   684.547119,       992.25,   728.968628
   4208,    661.31189,       992.25,   750.111084
   4209,   637.424011,       992.25,   770.513245
   4210,   612.907043,       992.25,   790.155029
   4211,   587.785278,       992.25,   809.016968
   4212,   562.083374,       992.25,   827.080566
   4213,   535.826782,       992.25,   844.327942
   4214,   509.041412,       992.25,   860.742004
   4215,   481.753662,       992.25,   876.306702
   4216,   453.990509,       992.25,   891.006531
   4217,   425.779297,       992.25,   904.827026
   4218,   397.147888,       992.25,   917.754639
   4219,   368.124542,       992.25,   929.776489
   4220,   338.737915,       992.25,   940.880798
   4221,   309.016998,       992.25,   951.056519
   4222,   278.991119,       992.25,   960.293701
   4223,    248.68988,       992.25,   968.583191
   4224,   218.143234,       992.25,   975.916748
   4225,   187.381317,       992.25,   982.287231
   4226,   156.434464,       992.25,   987.688354
   4227,   125.333237,       992.25,   992.114685
   4228,   94.1083145,       992.25,   995.561951
   4229,   62.7905197,       992.25,   998.026733
   4230,    31.410759,       992.25,   999.506531
   4231,           0.,       992.25,        1000.
   4232,   -31.410759,       992.25,   999.506531
   4233,  -62.7905197,       992.25,   998.026733
   4234,  -94.1083145,       992.25,   995.561951
   4235,  -125.333237,       992.25,   992.114685
   4236,  -156.434464,       992.25,   987.688354
   4237,  -187.381317,       992.25,   982.287231
   4238,  -218.143234,       992.25,   975.916748
   4239,   -248.68988,       992.25,   968.583191
   4240,  -278.991119,       992.25,   960.293701
   4241,  -309.016998,       992.25,   951.056519
   4242,  -338.737915,       992.25,   940.880798
   4243,  -368.124542,       992.25,   929.776489
   4244,  -397.147888,       992.25,   917.754639
   4245,  -425.779297,       992.25,   904.827026
   4246,  -453.990509,       992.25,   891.006531
   4247,  -481.753662,       992.25,   876.306702
   4248,  -509.041412,       992.25,   860.742004
   4249,  -535.826782,       992.25,   844.327942
   4250,  -562.083374,       992.25,   827.080566
   4251,  -587.785278,       992.25,   809.016968
   4252,  -612.907043,       992.25,   790.155029
   4253,  -637.424011,       992.25,   770.513245
   4254,   -661.31189,       992.25,   750.111084
   4255,  -684.547119,       992.25,   728.968628
   4256,  -707.106812,       992.25,   707.106812
   4257,  -728.968628,       992.25,   684.547119
   4258,  -750.111084,       992.25,    661.31189
   4259,  -770.513245,       992.25,   637.424011
   4260,  -790.155029,       992.25,   612.907043
   4261,  -809.016968,       992.25,   587.785278
   4262,  -827.080566,       992.25,   562.083374
   4263,  -844.327942,       992.25,   535.826782
   4264,  -860.742004,       992.25,   509.041412
   4265,  -876.306702,       992.25,   481.753662
   4266,  -891.006531,       992.25,   453.990509
   4267,  -904.827026,       992.25,   425.779297
   4268,  -917.754639,       992.25,   397.147888
   4269,  -929.776489,       992.25,   368.124542
   4270,  -940.880798,       992.25,   338.737915
   4271,  -951.056519,       992.25,   309.016998
   4272,  -960.293701,       992.25,   278.991119
   4273,  -968.583191,       992.25,    248.68988
   4274,  -975.916748,       992.25,   218.143234
   4275,  -982.287231,       992.25,   187.381317
   4276,  -987.688354,       992.25,   156.434464
   4277,  -992.114685,       992.25,   125.333237
   4278,  -995.561951,       992.25,   94.1083145
   4279,  -998.026733,       992.25,   62.7905197
   4280,  -999.506531,       992.25,    31.410759
   4281,  -999.506531,   136.800003,    31.410759
   4282,  -998.026733,   136.800003,   62.7905197
   4283,  -995.561951,   136.800003,   94.1083145
   4284,  -992.114685,   136.800003,   125.333237
   4285,  -987.688354,   136.800003,   156.434464
   4286,  -982.287231,   136.800003,   187.381317
   4287,  -975.916748,   136.800003,   218.143234
   4288,  -968.583191,   136.800003,    248.68988
   4289,  -960.293701,   136.800003,   278.991119
   4290,  -951.056519,   136.800003,   309.016998
   4291,  -940.880798,   136.800003,   338.737915
   4292,  -929.776489,   136.800003,   368.124542
   4293,  -917.754639,   136.800003,   397.147888
   4294,  -904.827026,   136.800003,   425.779297
   4295,  -891.006531,   136.800003,   453.990509
   4296,  -876.306702,   136.800003,   481.753662
   4297,  -860.742004,   136.800003,   509.041412
   4298,  -844.327942,   136.800003,   535.826782
   4299,  -827.080566,   136.800003,   562.083374
   4300,  -809.016968,   136.800003,   587.785278
   4301,  -790.155029,   136.800003,   612.907043
   4302,  -770.513245,   136.800003,   637.424011
   4303,  -750.111084,   136.800003,    661.31189
   4304,  -728.968628,   136.800003,   684.547119
   4305,  -707.106812,   136.800003,   707.106812
   4306,  -684.547119,   136.800003,   728.968628
   4307,   -661.31189,   136.800003,   750.111084
   4308,  -637.424011,   136.800003,   770.513245
   4309,  -612.907043,   136.800003,   790.155029
   4310,  -587.785278,   136.800003,   809.016968
   4311,  -562.083374,   136.800003,   827.080566
   4312,  -535.826782,   136.800003,   844.327942
   4313,  -509.041412,   136.800003,   860.742004
   4314,  -481.753662,   136.800003,   876.306702
   4315,  -453.990509,   136.800003,   891.006531
   4316,  -425.779297,   136.800003,   904.827026
   4317,  -397.147888,   136.800003,   917.754639
   4318,  -368.124542,   136.800003,   929.776489
   4319,  -338.737915,   136.800003,   940.880798
   4320,  -309.016998,   136.800003,   951.056519
   4321,  -278.991119,   136.800003,   960.293701
   4322,   -248.68988,   136.800003,   968.583191
   4323,  -218.143234,   136.800003,   975.916748
   4324,  -187.381317,   136.800003,   982.287231
   4325,  -156.434464,   136.800003,   987.688354
   4326,  -125.333237,   136.800003,   992.114685
   4327,  -94.1083145,   136.800003,   995.561951
   4328,  -62.7905197,   136.800003,   998.026733
   4329,   -31.410759,   136.800003,   999.506531
   4330,           0.,   136.800003,        1000.
   4331,    31.410759,   136.800003,   999.506531
   4332,   62.7905197,   136.800003,   998.026733
   4333,   94.1083145,   136.800003,   995.561951
   4334,   125.333237,   136.800003,   992.114685
   4335,   156.434464,   136.800003,   987.688354
   4336,   187.381317,   136.800003,   982.287231
   4337,   218.143234,   136.800003,   975.916748
   4338,    248.68988,   136.800003,   968.583191
   4339,   278.991119,   136.800003,   960.293701
   4340,   309.016998,   136.800003,   951.056519
   4341,   338.737915,   136.800003,   940.880798
   4342,   368.124542,   136.800003,   929.776489
   4343,   397.147888,   136.800003,   917.754639
   4344,   425.779297,   136.800003,   904.827026
   4345,   453.990509,   136.800003,   891.006531
   4346,   481.753662,   136.800003,   876.306702
   4347,   509.041412,   136.800003,   860.742004
   4348,   535.826782,   136.800003,   844.327942
   4349,   562.083374,   136.800003,   827.080566
   4350,   587.785278,   136.800003,   809.016968
   4351,   612.907043,   136.800003,   790.155029
   4352,   637.424011,   136.800003,   770.513245
   4353,    661.31189,   136.800003,   750.111084
   4354,   684.547119,   136.800003,   728.968628
   4355,   707.106812,   136.800003,   707.106812
   4356,   728.968628,   136.800003,   684.547119
   4357,   750.111084,   136.800003,    661.31189
   4358,   770.513245,   136.800003,   637.424011
   4359,   790.155029,   136.800003,   612.907043
   4360,   809.016968,   136.800003,   587.785278
   4361,   827.080566,   136.800003,   562.083374
   4362,   844.327942,   136.800003,   535.826782
   4363,   860.742004,   136.800003,   509.041412
   4364,   876.306702,   136.800003,   481.753662
   4365,   891.006531,   136.800003,   453.990509
   4366,   904.827026,   136.800003,   425.779297
   4367,   917.754639,   136.800003,   397.147888
   4368,   929.776489,   136.800003,   368.124542
   4369,   940.880798,   136.800003,   338.737915
   4370,   951.056519,   136.800003,   309.016998
   4371,   960.293701,   136.800003,   278.991119
   4372,   968.583191,   136.800003,    248.68988
   4373,   975.916748,   136.800003,   218.143234
   4374,   982.287231,   136.800003,   187.381317
   4375,   987.688354,   136.800003,   156.434464
   4376,   992.114685,   136.800003,   125.333237
   4377,   995.561951,   136.800003,   94.1083145
   4378,   998.026733,   136.800003,   62.7905197
   4379,   999.506531,   136.800003,    31.410759
   4380,  -999.506531,   129.600006,    31.410759
   4381,  -998.026733,   129.600006,   62.7905197
   4382,  -995.561951,   129.600006,   94.1083145
   4383,  -992.114685,   129.600006,   125.333237
   4384,  -987.688354,   129.600006,   156.434464
   4385,  -982.287231,   129.600006,   187.381317
   4386,  -975.916748,   129.600006,   218.143234
   4387,  -968.583191,   129.600006,    248.68988
   4388,  -960.293701,   129.600006,   278.991119
   4389,  -951.056519,   129.600006,   309.016998
   4390,  -940.880798,   129.600006,   338.737915
   4391,  -929.776489,   129.600006,   368.124542
   4392,  -917.754639,   129.600006,   397.147888
   4393,  -904.827026,   129.600006,   425.779297
   4394,  -891.006531,   129.600006,   453.990509
   4395,  -876.306702,   129.600006,   481.753662
   4396,  -860.742004,   129.600006,   509.041412
   4397,  -844.327942,   129.600006,   535.826782
   4398,  -827.080566,   129.600006,   562.083374
   4399,  -809.016968,   129.600006,   587.785278
   4400,  -790.155029,   129.600006,   612.907043
   4401,  -770.513245,   129.600006,   637.424011
   4402,  -750.111084,   129.600006,    661.31189
   4403,  -728.968628,   129.600006,   684.547119
   4404,  -707.106812,   129.600006,   707.106812
   4405,  -684.547119,   129.600006,   728.968628
   4406,   -661.31189,   129.600006,   750.111084
   4407,  -637.424011,   129.600006,   770.513245
   4408,  -612.907043,   129.600006,   790.155029
   4409,  -587.785278,   129.600006,   809.016968
   4410,  -562.083374,   129.600006,   827.080566
   4411,  -535.826782,   129.600006,   844.327942
   4412,  -509.041412,   129.600006,   860.742004
   4413,  -481.753662,   129.600006,   876.306702
   4414,  -453.990509,   129.600006,   891.006531
   4415,  -425.779297,   129.600006,   904.827026
   4416,  -397.147888,   129.600006,   917.754639
   4417,  -368.124542,   129.600006,   929.776489
   4418,  -338.737915,   129.600006,   940.880798
   4419,  -309.016998,   129.600006,   951.056519
   4420,  -278.991119,   129.600006,   960.293701
   4421,   -248.68988,   129.600006,   968.583191
   4422,  -218.143234,   129.600006,   975.916748
   4423,  -187.381317,   129.600006,   982.287231
   4424,  -156.434464,   129.600006,   987.688354
   4425,  -125.333237,   129.600006,   992.114685
   4426,  -94.1083145,   129.600006,   995.561951
   4427,  -62.7905197,   129.600006,   998.026733
   4428,   -31.410759,   129.600006,   999.506531
   4429,           0.,   129.600006,        1000.
   4430,    31.410759,   129.600006,   999.506531
   4431,   62.7905197,   129.600006,   998.026733
   4432,   94.1083145,   129.600006,   995.561951
   4433,   125.333237,   129.600006,   992.114685
   4434,   156.434464,   129.600006,   987.688354
   4435,   187.381317,   129.600006,   982.287231
   4436,   218.143234,   129.600006,   975.916748
   4437,    248.68988,   129.600006,   968.583191
   4438,   278.991119,   129.600006,   960.293701
   4439,   309.016998,   129.600006,   951.056519
   4440,   338.737915,   129.600006,   940.880798
   4441,   368.124542,   129.600006,   929.776489
   4442,   397.147888,   129.600006,   917.754639
   4443,   425.779297,   129.600006,   904.827026
   4444,   453.990509,   129.600006,   891.006531
   4445,   481.753662,   129.600006,   876.306702
   4446,   509.041412,   129.600006,   860.742004
   4447,   535.826782,   129.600006,   844.327942
   4448,   562.083374,   129.600006,   827.080566
   4449,   587.785278,   129.600006,   809.016968
   4450,   612.907043,   129.600006,   790.155029
   4451,   637.424011,   129.600006,   770.513245
   4452,    661.31189,   129.600006,   750.111084
   4453,   684.547119,   129.600006,   728.968628
   4454,   707.106812,   129.600006,   707.106812
   4455,   728.968628,   129.600006,   684.547119
   4456,   750.111084,   129.600006,    661.31189
   4457,   770.513245,   129.600006,   637.424011
   4458,   790.155029,   129.600006,   612.907043
   4459,   809.016968,   129.600006,   587.785278
   4460,   827.080566,   129.600006,   562.083374
   4461,   844.327942,   129.600006,   535.826782
   4462,   860.742004,   129.600006,   509.041412
   4463,   876.306702,   129.600006,   481.753662
   4464,   891.006531,   129.600006,   453.990509
   4465,   904.827026,   129.600006,   425.779297
   4466,   917.754639,   129.600006,   397.147888
   4467,   929.776489,   129.600006,   368.124542
   4468,   940.880798,   129.600006,   338.737915
   4469,   951.056519,   129.600006,   309.016998
   4470,   960.293701,   129.600006,   278.991119
   4471,   968.583191,   129.600006,    248.68988
   4472,   975.916748,   129.600006,   218.143234
   4473,   982.287231,   129.600006,   187.381317
   4474,   987.688354,   129.600006,   156.434464
   4475,   992.114685,   129.600006,   125.333237
   4476,   995.561951,   129.600006,   94.1083145
   4477,   998.026733,   129.600006,   62.7905197
   4478,   999.506531,   129.600006,    31.410759
   4479,  -999.506531,   122.400002,    31.410759
   4480,  -998.026733,   122.400002,   62.7905197
   4481,  -995.561951,   122.400002,   94.1083145
   4482,  -992.114685,   122.400002,   125.333237
   4483,  -987.688354,   122.400002,   156.434464
   4484,  -982.287231,   122.400002,   187.381317
   4485,  -975.916748,   122.400002,   218.143234
   4486,  -968.583191,   122.400002,    248.68988
   4487,  -960.293701,   122.400002,   278.991119
   4488,  -951.056519,   122.400002,   309.016998
   4489,  -940.880798,   122.400002,   338.737915
   4490,  -929.776489,   122.400002,   368.124542
   4491,  -917.754639,   122.400002,   397.147888
   4492,  -904.827026,   122.400002,   425.779297
   4493,  -891.006531,   122.400002,   453.990509
   4494,  -876.306702,   122.400002,   481.753662
   4495,  -860.742004,   122.400002,   509.041412
   4496,  -844.327942,   122.400002,   535.826782
   4497,  -827.080566,   122.400002,   562.083374
   4498,  -809.016968,   122.400002,   587.785278
   4499,  -790.155029,   122.400002,   612.907043
   4500,  -770.513245,   122.400002,   637.424011
   4501,  -750.111084,   122.400002,    661.31189
   4502,  -728.968628,   122.400002,   684.547119
   4503,  -707.106812,   122.400002,   707.106812
   4504,  -684.547119,   122.400002,   728.968628
   4505,   -661.31189,   122.400002,   750.111084
   4506,  -637.424011,   122.400002,   770.513245
   4507,  -612.907043,   122.400002,   790.155029
   4508,  -587.785278,   122.400002,   809.016968
   4509,  -562.083374,   122.400002,   827.080566
   4510,  -535.826782,   122.400002,   844.327942
   4511,  -509.041412,   122.400002,   860.742004
   4512,  -481.753662,   122.400002,   876.306702
   4513,  -453.990509,   122.400002,   891.006531
   4514,  -425.779297,   122.400002,   904.827026
   4515,  -397.147888,   122.400002,   917.754639
   4516,  -368.124542,   122.400002,   929.776489
   4517,  -338.737915,   122.400002,   940.880798
   4518,  -309.016998,   122.400002,   951.056519
   4519,  -278.991119,   122.400002,   960.293701
   4520,   -248.68988,   122.400002,   968.583191
   4521,  -218.143234,   122.400002,   975.916748
   4522,  -187.381317,   122.400002,   982.287231
   4523,  -156.434464,   122.400002,   987.688354
   4524,  -125.333237,   122.400002,   992.114685
   4525,  -94.1083145,   122.400002,   995.561951
   4526,  -62.7905197,   122.400002,   998.026733
   4527,   -31.410759,   122.400002,   999.506531
   4528,           0.,   122.400002,        1000.
   4529,    31.410759,   122.400002,   999.506531
   4530,   62.7905197,   122.400002,   998.026733
   4531,   94.1083145,   122.400002,   995.561951
   4532,   125.333237,   122.400002,   992.114685
   4533,   156.434464,   122.400002,   987.688354
   4534,   187.381317,   122.400002,   982.287231
   4535,   218.143234,   122.400002,   975.916748
   4536,    248.68988,   122.400002,   968.583191
   4537,   278.991119,   122.400002,   960.293701
   4538,   309.016998,   122.400002,   951.056519
   4539,   338.737915,   122.400002,   940.880798
   4540,   368.124542,   122.400002,   929.776489
   4541,   397.147888,   122.400002,   917.754639
   4542,   425.779297,   122.400002,   904.827026
   4543,   453.990509,   122.400002,   891.006531
   4544,   481.753662,   122.400002,   876.306702
   4545,   509.041412,   122.400002,   860.742004
   4546,   535.826782,   122.400002,   844.327942
   4547,   562.083374,   122.400002,   827.080566
   4548,   587.785278,   122.400002,   809.016968
   4549,   612.907043,   122.400002,   790.155029
   4550,   637.424011,   122.400002,   770.513245
   4551,    661.31189,   122.400002,   750.111084
   4552,   684.547119,   122.400002,   728.968628
   4553,   707.106812,   122.400002,   707.106812
   4554,   728.968628,   122.400002,   684.547119
   4555,   750.111084,   122.400002,    661.31189
   4556,   770.513245,   122.400002,   637.424011
   4557,   790.155029,   122.400002,   612.907043
   4558,   809.016968,   122.400002,   587.785278
   4559,   827.080566,   122.400002,   562.083374
   4560,   844.327942,   122.400002,   535.826782
   4561,   860.742004,   122.400002,   509.041412
   4562,   876.306702,   122.400002,   481.753662
   4563,   891.006531,   122.400002,   453.990509
   4564,   904.827026,   122.400002,   425.779297
   4565,   917.754639,   122.400002,   397.147888
   4566,   929.776489,   122.400002,   368.124542
   4567,   940.880798,   122.400002,   338.737915
   4568,   951.056519,   122.400002,   309.016998
   4569,   960.293701,   122.400002,   278.991119
   4570,   968.583191,   122.400002,    248.68988
   4571,   975.916748,   122.400002,   218.143234
   4572,   982.287231,   122.400002,   187.381317
   4573,   987.688354,   122.400002,   156.434464
   4574,   992.114685,   122.400002,   125.333237
   4575,   995.561951,   122.400002,   94.1083145
   4576,   998.026733,   122.400002,   62.7905197
   4577,   999.506531,   122.400002,    31.410759
   4578,  -999.506531,   115.199997,    31.410759
   4579,  -998.026733,   115.199997,   62.7905197
   4580,  -995.561951,   115.199997,   94.1083145
   4581,  -992.114685,   115.199997,   125.333237
   4582,  -987.688354,   115.199997,   156.434464
   4583,  -982.287231,   115.199997,   187.381317
   4584,  -975.916748,   115.199997,   218.143234
   4585,  -968.583191,   115.199997,    248.68988
   4586,  -960.293701,   115.199997,   278.991119
   4587,  -951.056519,   115.199997,   309.016998
   4588,  -940.880798,   115.199997,   338.737915
   4589,  -929.776489,   115.199997,   368.124542
   4590,  -917.754639,   115.199997,   397.147888
   4591,  -904.827026,   115.199997,   425.779297
   4592,  -891.006531,   115.199997,   453.990509
   4593,  -876.306702,   115.199997,   481.753662
   4594,  -860.742004,   115.199997,   509.041412
   4595,  -844.327942,   115.199997,   535.826782
   4596,  -827.080566,   115.199997,   562.083374
   4597,  -809.016968,   115.199997,   587.785278
   4598,  -790.155029,   115.199997,   612.907043
   4599,  -770.513245,   115.199997,   637.424011
   4600,  -750.111084,   115.199997,    661.31189
   4601,  -728.968628,   115.199997,   684.547119
   4602,  -707.106812,   115.199997,   707.106812
   4603,  -684.547119,   115.199997,   728.968628
   4604,   -661.31189,   115.199997,   750.111084
   4605,  -637.424011,   115.199997,   770.513245
   4606,  -612.907043,   115.199997,   790.155029
   4607,  -587.785278,   115.199997,   809.016968
   4608,  -562.083374,   115.199997,   827.080566
   4609,  -535.826782,   115.199997,   844.327942
   4610,  -509.041412,   115.199997,   860.742004
   4611,  -481.753662,   115.199997,   876.306702
   4612,  -453.990509,   115.199997,   891.006531
   4613,  -425.779297,   115.199997,   904.827026
   4614,  -397.147888,   115.199997,   917.754639
   4615,  -368.124542,   115.199997,   929.776489
   4616,  -338.737915,   115.199997,   940.880798
   4617,  -309.016998,   115.199997,   951.056519
   4618,  -278.991119,   115.199997,   960.293701
   4619,   -248.68988,   115.199997,   968.583191
   4620,  -218.143234,   115.199997,   975.916748
   4621,  -187.381317,   115.199997,   982.287231
   4622,  -156.434464,   115.199997,   987.688354
   4623,  -125.333237,   115.199997,   992.114685
   4624,  -94.1083145,   115.199997,   995.561951
   4625,  -62.7905197,   115.199997,   998.026733
   4626,   -31.410759,   115.199997,   999.506531
   4627,           0.,   115.199997,        1000.
   4628,    31.410759,   115.199997,   999.506531
   4629,   62.7905197,   115.199997,   998.026733
   4630,   94.1083145,   115.199997,   995.561951
   4631,   125.333237,   115.199997,   992.114685
   4632,   156.434464,   115.199997,   987.688354
   4633,   187.381317,   115.199997,   982.287231
   4634,   218.143234,   115.199997,   975.916748
   4635,    248.68988,   115.199997,   968.583191
   4636,   278.991119,   115.199997,   960.293701
   4637,   309.016998,   115.199997,   951.056519
   4638,   338.737915,   115.199997,   940.880798
   4639,   368.124542,   115.199997,   929.776489
   4640,   397.147888,   115.199997,   917.754639
   4641,   425.779297,   115.199997,   904.827026
   4642,   453.990509,   115.199997,   891.006531
   4643,   481.753662,   115.199997,   876.306702
   4644,   509.041412,   115.199997,   860.742004
   4645,   535.826782,   115.199997,   844.327942
   4646,   562.083374,   115.199997,   827.080566
   4647,   587.785278,   115.199997,   809.016968
   4648,   612.907043,   115.199997,   790.155029
   4649,   637.424011,   115.199997,   770.513245
   4650,    661.31189,   115.199997,   750.111084
   4651,   684.547119,   115.199997,   728.968628
   4652,   707.106812,   115.199997,   707.106812
   4653,   728.968628,   115.199997,   684.547119
   4654,   750.111084,   115.199997,    661.31189
   4655,   770.513245,   115.199997,   637.424011
   4656,   790.155029,   115.199997,   612.907043
   4657,   809.016968,   115.199997,   587.785278
   4658,   827.080566,   115.199997,   562.083374
   4659,   844.327942,   115.199997,   535.826782
   4660,   860.742004,   115.199997,   509.041412
   4661,   876.306702,   115.199997,   481.753662
   4662,   891.006531,   115.199997,   453.990509
   4663,   904.827026,   115.199997,   425.779297
   4664,   917.754639,   115.199997,   397.147888
   4665,   929.776489,   115.199997,   368.124542
   4666,   940.880798,   115.199997,   338.737915
   4667,   951.056519,   115.199997,   309.016998
   4668,   960.293701,   115.199997,   278.991119
   4669,   968.583191,   115.199997,    248.68988
   4670,   975.916748,   115.199997,   218.143234
   4671,   982.287231,   115.199997,   187.381317
   4672,   987.688354,   115.199997,   156.434464
   4673,   992.114685,   115.199997,   125.333237
   4674,   995.561951,   115.199997,   94.1083145
   4675,   998.026733,   115.199997,   62.7905197
   4676,   999.506531,   115.199997,    31.410759
   4677,  -999.506531,         108.,    31.410759
   4678,  -998.026733,         108.,   62.7905197
   4679,  -995.561951,         108.,   94.1083145
   4680,  -992.114685,         108.,   125.333237
   4681,  -987.688354,         108.,   156.434464
   4682,  -982.287231,         108.,   187.381317
   4683,  -975.916748,         108.,   218.143234
   4684,  -968.583191,         108.,    248.68988
   4685,  -960.293701,         108.,   278.991119
   4686,  -951.056519,         108.,   309.016998
   4687,  -940.880798,         108.,   338.737915
   4688,  -929.776489,         108.,   368.124542
   4689,  -917.754639,         108.,   397.147888
   4690,  -904.827026,         108.,   425.779297
   4691,  -891.006531,         108.,   453.990509
   4692,  -876.306702,         108.,   481.753662
   4693,  -860.742004,         108.,   509.041412
   4694,  -844.327942,         108.,   535.826782
   4695,  -827.080566,         108.,   562.083374
   4696,  -809.016968,         108.,   587.785278
   4697,  -790.155029,         108.,   612.907043
   4698,  -770.513245,         108.,   637.424011
   4699,  -750.111084,         108.,    661.31189
   4700,  -728.968628,         108.,   684.547119
   4701,  -707.106812,         108.,   707.106812
   4702,  -684.547119,         108.,   728.968628
   4703,   -661.31189,         108.,   750.111084
   4704,  -637.424011,         108.,   770.513245
   4705,  -612.907043,         108.,   790.155029
   4706,  -587.785278,         108.,   809.016968
   4707,  -562.083374,         108.,   827.080566
   4708,  -535.826782,         108.,   844.327942
   4709,  -509.041412,         108.,   860.742004
   4710,  -481.753662,         108.,   876.306702
   4711,  -453.990509,         108.,   891.006531
   4712,  -425.779297,         108.,   904.827026
   4713,  -397.147888,         108.,   917.754639
   4714,  -368.124542,         108.,   929.776489
   4715,  -338.737915,         108.,   940.880798
   4716,  -309.016998,         108.,   951.056519
   4717,  -278.991119,         108.,   960.293701
   4718,   -248.68988,         108.,   968.583191
   4719,  -218.143234,         108.,   975.916748
   4720,  -187.381317,         108.,   982.287231
   4721,  -156.434464,         108.,   987.688354
   4722,  -125.333237,         108.,   992.114685
   4723,  -94.1083145,         108.,   995.561951
   4724,  -62.7905197,         108.,   998.026733
   4725,   -31.410759,         108.,   999.506531
   4726,           0.,         108.,        1000.
   4727,    31.410759,         108.,   999.506531
   4728,   62.7905197,         108.,   998.026733
   4729,   94.1083145,         108.,   995.561951
   4730,   125.333237,         108.,   992.114685
   4731,   156.434464,         108.,   987.688354
   4732,   187.381317,         108.,   982.287231
   4733,   218.143234,         108.,   975.916748
   4734,    248.68988,         108.,   968.583191
   4735,   278.991119,         108.,   960.293701
   4736,   309.016998,         108.,   951.056519
   4737,   338.737915,         108.,   940.880798
   4738,   368.124542,         108.,   929.776489
   4739,   397.147888,         108.,   917.754639
   4740,   425.779297,         108.,   904.827026
   4741,   453.990509,         108.,   891.006531
   4742,   481.753662,         108.,   876.306702
   4743,   509.041412,         108.,   860.742004
   4744,   535.826782,         108.,   844.327942
   4745,   562.083374,         108.,   827.080566
   4746,   587.785278,         108.,   809.016968
   4747,   612.907043,         108.,   790.155029
   4748,   637.424011,         108.,   770.513245
   4749,    661.31189,         108.,   750.111084
   4750,   684.547119,         108.,   728.968628
   4751,   707.106812,         108.,   707.106812
   4752,   728.968628,         108.,   684.547119
   4753,   750.111084,         108.,    661.31189
   4754,   770.513245,         108.,   637.424011
   4755,   790.155029,         108.,   612.907043
   4756,   809.016968,         108.,   587.785278
   4757,   827.080566,         108.,   562.083374
   4758,   844.327942,         108.,   535.826782
   4759,   860.742004,         108.,   509.041412
   4760,   876.306702,         108.,   481.753662
   4761,   891.006531,         108.,   453.990509
   4762,   904.827026,         108.,   425.779297
   4763,   917.754639,         108.,   397.147888
   4764,   929.776489,         108.,   368.124542
   4765,   940.880798,         108.,   338.737915
   4766,   951.056519,         108.,   309.016998
   4767,   960.293701,         108.,   278.991119
   4768,   968.583191,         108.,    248.68988
   4769,   975.916748,         108.,   218.143234
   4770,   982.287231,         108.,   187.381317
   4771,   987.688354,         108.,   156.434464
   4772,   992.114685,         108.,   125.333237
   4773,   995.561951,         108.,   94.1083145
   4774,   998.026733,         108.,   62.7905197
   4775,   999.506531,         108.,    31.410759
   4776,  -999.506531,   100.800003,    31.410759
   4777,  -998.026733,   100.800003,   62.7905197
   4778,  -995.561951,   100.800003,   94.1083145
   4779,  -992.114685,   100.800003,   125.333237
   4780,  -987.688354,   100.800003,   156.434464
   4781,  -982.287231,   100.800003,   187.381317
   4782,  -975.916748,   100.800003,   218.143234
   4783,  -968.583191,   100.800003,    248.68988
   4784,  -960.293701,   100.800003,   278.991119
   4785,  -951.056519,   100.800003,   309.016998
   4786,  -940.880798,   100.800003,   338.737915
   4787,  -929.776489,   100.800003,   368.124542
   4788,  -917.754639,   100.800003,   397.147888
   4789,  -904.827026,   100.800003,   425.779297
   4790,  -891.006531,   100.800003,   453.990509
   4791,  -876.306702,   100.800003,   481.753662
   4792,  -860.742004,   100.800003,   509.041412
   4793,  -844.327942,   100.800003,   535.826782
   4794,  -827.080566,   100.800003,   562.083374
   4795,  -809.016968,   100.800003,   587.785278
   4796,  -790.155029,   100.800003,   612.907043
   4797,  -770.513245,   100.800003,   637.424011
   4798,  -750.111084,   100.800003,    661.31189
   4799,  -728.968628,   100.800003,   684.547119
   4800,  -707.106812,   100.800003,   707.106812
   4801,  -684.547119,   100.800003,   728.968628
   4802,   -661.31189,   100.800003,   750.111084
   4803,  -637.424011,   100.800003,   770.513245
   4804,  -612.907043,   100.800003,   790.155029
   4805,  -587.785278,   100.800003,   809.016968
   4806,  -562.083374,   100.800003,   827.080566
   4807,  -535.826782,   100.800003,   844.327942
   4808,  -509.041412,   100.800003,   860.742004
   4809,  -481.753662,   100.800003,   876.306702
   4810,  -453.990509,   100.800003,   891.006531
   4811,  -425.779297,   100.800003,   904.827026
   4812,  -397.147888,   100.800003,   917.754639
   4813,  -368.124542,   100.800003,   929.776489
   4814,  -338.737915,   100.800003,   940.880798
   4815,  -309.016998,   100.800003,   951.056519
   4816,  -278.991119,   100.800003,   960.293701
   4817,   -248.68988,   100.800003,   968.583191
   4818,  -218.143234,   100.800003,   975.916748
   4819,  -187.381317,   100.800003,   982.287231
   4820,  -156.434464,   100.800003,   987.688354
   4821,  -125.333237,   100.800003,   992.114685
   4822,  -94.1083145,   100.800003,   995.561951
   4823,  -62.7905197,   100.800003,   998.026733
   4824,   -31.410759,   100.800003,   999.506531
   4825,           0.,   100.800003,        1000.
   4826,    31.410759,   100.800003,   999.506531
   4827,   62.7905197,   100.800003,   998.026733
   4828,   94.1083145,   100.800003,   995.561951
   4829,   125.333237,   100.800003,   992.114685
   4830,   156.434464,   100.800003,   987.688354
   4831,   187.381317,   100.800003,   982.287231
   4832,   218.143234,   100.800003,   975.916748
   4833,    248.68988,   100.800003,   968.583191
   4834,   278.991119,   100.800003,   960.293701
   4835,   309.016998,   100.800003,   951.056519
   4836,   338.737915,   100.800003,   940.880798
   4837,   368.124542,   100.800003,   929.776489
   4838,   397.147888,   100.800003,   917.754639
   4839,   425.779297,   100.800003,   904.827026
   4840,   453.990509,   100.800003,   891.006531
   4841,   481.753662,   100.800003,   876.306702
   4842,   509.041412,   100.800003,   860.742004
   4843,   535.826782,   100.800003,   844.327942
   4844,   562.083374,   100.800003,   827.080566
   4845,   587.785278,   100.800003,   809.016968
   4846,   612.907043,   100.800003,   790.155029
   4847,   637.424011,   100.800003,   770.513245
   4848,    661.31189,   100.800003,   750.111084
   4849,   684.547119,   100.800003,   728.968628
   4850,   707.106812,   100.800003,   707.106812
   4851,   728.968628,   100.800003,   684.547119
   4852,   750.111084,   100.800003,    661.31189
   4853,   770.513245,   100.800003,   637.424011
   4854,   790.155029,   100.800003,   612.907043
   4855,   809.016968,   100.800003,   587.785278
   4856,   827.080566,   100.800003,   562.083374
   4857,   844.327942,   100.800003,   535.826782
   4858,   860.742004,   100.800003,   509.041412
   4859,   876.306702,   100.800003,   481.753662
   4860,   891.006531,   100.800003,   453.990509
   4861,   904.827026,   100.800003,   425.779297
   4862,   917.754639,   100.800003,   397.147888
   4863,   929.776489,   100.800003,   368.124542
   4864,   940.880798,   100.800003,   338.737915
   4865,   951.056519,   100.800003,   309.016998
   4866,   960.293701,   100.800003,   278.991119
   4867,   968.583191,   100.800003,    248.68988
   4868,   975.916748,   100.800003,   218.143234
   4869,   982.287231,   100.800003,   187.381317
   4870,   987.688354,   100.800003,   156.434464
   4871,   992.114685,   100.800003,   125.333237
   4872,   995.561951,   100.800003,   94.1083145
   4873,   998.026733,   100.800003,   62.7905197
   4874,   999.506531,   100.800003,    31.410759
   4875,  -999.506531,   93.5999985,    31.410759
   4876,  -998.026733,   93.5999985,   62.7905197
   4877,  -995.561951,   93.5999985,   94.1083145
   4878,  -992.114685,   93.5999985,   125.333237
   4879,  -987.688354,   93.5999985,   156.434464
   4880,  -982.287231,   93.5999985,   187.381317
   4881,  -975.916748,   93.5999985,   218.143234
   4882,  -968.583191,   93.5999985,    248.68988
   4883,  -960.293701,   93.5999985,   278.991119
   4884,  -951.056519,   93.5999985,   309.016998
   4885,  -940.880798,   93.5999985,   338.737915
   4886,  -929.776489,   93.5999985,   368.124542
   4887,  -917.754639,   93.5999985,   397.147888
   4888,  -904.827026,   93.5999985,   425.779297
   4889,  -891.006531,   93.5999985,   453.990509
   4890,  -876.306702,   93.5999985,   481.753662
   4891,  -860.742004,   93.5999985,   509.041412
   4892,  -844.327942,   93.5999985,   535.826782
   4893,  -827.080566,   93.5999985,   562.083374
   4894,  -809.016968,   93.5999985,   587.785278
   4895,  -790.155029,   93.5999985,   612.907043
   4896,  -770.513245,   93.5999985,   637.424011
   4897,  -750.111084,   93.5999985,    661.31189
   4898,  -728.968628,   93.5999985,   684.547119
   4899,  -707.106812,   93.5999985,   707.106812
   4900,  -684.547119,   93.5999985,   728.968628
   4901,   -661.31189,   93.5999985,   750.111084
   4902,  -637.424011,   93.5999985,   770.513245
   4903,  -612.907043,   93.5999985,   790.155029
   4904,  -587.785278,   93.5999985,   809.016968
   4905,  -562.083374,   93.5999985,   827.080566
   4906,  -535.826782,   93.5999985,   844.327942
   4907,  -509.041412,   93.5999985,   860.742004
   4908,  -481.753662,   93.5999985,   876.306702
   4909,  -453.990509,   93.5999985,   891.006531
   4910,  -425.779297,   93.5999985,   904.827026
   4911,  -397.147888,   93.5999985,   917.754639
   4912,  -368.124542,   93.5999985,   929.776489
   4913,  -338.737915,   93.5999985,   940.880798
   4914,  -309.016998,   93.5999985,   951.056519
   4915,  -278.991119,   93.5999985,   960.293701
   4916,   -248.68988,   93.5999985,   968.583191
   4917,  -218.143234,   93.5999985,   975.916748
   4918,  -187.381317,   93.5999985,   982.287231
   4919,  -156.434464,   93.5999985,   987.688354
   4920,  -125.333237,   93.5999985,   992.114685
   4921,  -94.1083145,   93.5999985,   995.561951
   4922,  -62.7905197,   93.5999985,   998.026733
   4923,   -31.410759,   93.5999985,   999.506531
   4924,           0.,   93.5999985,        1000.
   4925,    31.410759,   93.5999985,   999.506531
   4926,   62.7905197,   93.5999985,   998.026733
   4927,   94.1083145,   93.5999985,   995.561951
   4928,   125.333237,   93.5999985,   992.114685
   4929,   156.434464,   93.5999985,   987.688354
   4930,   187.381317,   93.5999985,   982.287231
   4931,   218.143234,   93.5999985,   975.916748
   4932,    248.68988,   93.5999985,   968.583191
   4933,   278.991119,   93.5999985,   960.293701
   4934,   309.016998,   93.5999985,   951.056519
   4935,   338.737915,   93.5999985,   940.880798
   4936,   368.124542,   93.5999985,   929.776489
   4937,   397.147888,   93.5999985,   917.754639
   4938,   425.779297,   93.5999985,   904.827026
   4939,   453.990509,   93.5999985,   891.006531
   4940,   481.753662,   93.5999985,   876.306702
   4941,   509.041412,   93.5999985,   860.742004
   4942,   535.826782,   93.5999985,   844.327942
   4943,   562.083374,   93.5999985,   827.080566
   4944,   587.785278,   93.5999985,   809.016968
   4945,   612.907043,   93.5999985,   790.155029
   4946,   637.424011,   93.5999985,   770.513245
   4947,    661.31189,   93.5999985,   750.111084
   4948,   684.547119,   93.5999985,   728.968628
   4949,   707.106812,   93.5999985,   707.106812
   4950,   728.968628,   93.5999985,   684.547119
   4951,   750.111084,   93.5999985,    661.31189
   4952,   770.513245,   93.5999985,   637.424011
   4953,   790.155029,   93.5999985,   612.907043
   4954,   809.016968,   93.5999985,   587.785278
   4955,   827.080566,   93.5999985,   562.083374
   4956,   844.327942,   93.5999985,   535.826782
   4957,   860.742004,   93.5999985,   509.041412
   4958,   876.306702,   93.5999985,   481.753662
   4959,   891.006531,   93.5999985,   453.990509
   4960,   904.827026,   93.5999985,   425.779297
   4961,   917.754639,   93.5999985,   397.147888
   4962,   929.776489,   93.5999985,   368.124542
   4963,   940.880798,   93.5999985,   338.737915
   4964,   951.056519,   93.5999985,   309.016998
   4965,   960.293701,   93.5999985,   278.991119
   4966,   968.583191,   93.5999985,    248.68988
   4967,   975.916748,   93.5999985,   218.143234
   4968,   982.287231,   93.5999985,   187.381317
   4969,   987.688354,   93.5999985,   156.434464
   4970,   992.114685,   93.5999985,   125.333237
   4971,   995.561951,   93.5999985,   94.1083145
   4972,   998.026733,   93.5999985,   62.7905197
   4973,   999.506531,   93.5999985,    31.410759
   4974,  -999.506531,   86.4000015,    31.410759
   4975,  -998.026733,   86.4000015,   62.7905197
   4976,  -995.561951,   86.4000015,   94.1083145
   4977,  -992.114685,   86.4000015,   125.333237
   4978,  -987.688354,   86.4000015,   156.434464
   4979,  -982.287231,   86.4000015,   187.381317
   4980,  -975.916748,   86.4000015,   218.143234
   4981,  -968.583191,   86.4000015,    248.68988
   4982,  -960.293701,   86.4000015,   278.991119
   4983,  -951.056519,   86.4000015,   309.016998
   4984,  -940.880798,   86.4000015,   338.737915
   4985,  -929.776489,   86.4000015,   368.124542
   4986,  -917.754639,   86.4000015,   397.147888
   4987,  -904.827026,   86.4000015,   425.779297
   4988,  -891.006531,   86.4000015,   453.990509
   4989,  -876.306702,   86.4000015,   481.753662
   4990,  -860.742004,   86.4000015,   509.041412
   4991,  -844.327942,   86.4000015,   535.826782
   4992,  -827.080566,   86.4000015,   562.083374
   4993,  -809.016968,   86.4000015,   587.785278
   4994,  -790.155029,   86.4000015,   612.907043
   4995,  -770.513245,   86.4000015,   637.424011
   4996,  -750.111084,   86.4000015,    661.31189
   4997,  -728.968628,   86.4000015,   684.547119
   4998,  -707.106812,   86.4000015,   707.106812
   4999,  -684.547119,   86.4000015,   728.968628
   5000,   -661.31189,   86.4000015,   750.111084
   5001,  -637.424011,   86.4000015,   770.513245
   5002,  -612.907043,   86.4000015,   790.155029
   5003,  -587.785278,   86.4000015,   809.016968
   5004,  -562.083374,   86.4000015,   827.080566
   5005,  -535.826782,   86.4000015,   844.327942
   5006,  -509.041412,   86.4000015,   860.742004
   5007,  -481.753662,   86.4000015,   876.306702
   5008,  -453.990509,   86.4000015,   891.006531
   5009,  -425.779297,   86.4000015,   904.827026
   5010,  -397.147888,   86.4000015,   917.754639
   5011,  -368.124542,   86.4000015,   929.776489
   5012,  -338.737915,   86.4000015,   940.880798
   5013,  -309.016998,   86.4000015,   951.056519
   5014,  -278.991119,   86.4000015,   960.293701
   5015,   -248.68988,   86.4000015,   968.583191
   5016,  -218.143234,   86.4000015,   975.916748
   5017,  -187.381317,   86.4000015,   982.287231
   5018,  -156.434464,   86.4000015,   987.688354
   5019,  -125.333237,   86.4000015,   992.114685
   5020,  -94.1083145,   86.4000015,   995.561951
   5021,  -62.7905197,   86.4000015,   998.026733
   5022,   -31.410759,   86.4000015,   999.506531
   5023,           0.,   86.4000015,        1000.
   5024,    31.410759,   86.4000015,   999.506531
   5025,   62.7905197,   86.4000015,   998.026733
   5026,   94.1083145,   86.4000015,   995.561951
   5027,   125.333237,   86.4000015,   992.114685
   5028,   156.434464,   86.4000015,   987.688354
   5029,   187.381317,   86.4000015,   982.287231
   5030,   218.143234,   86.4000015,   975.916748
   5031,    248.68988,   86.4000015,   968.583191
   5032,   278.991119,   86.4000015,   960.293701
   5033,   309.016998,   86.4000015,   951.056519
   5034,   338.737915,   86.4000015,   940.880798
   5035,   368.124542,   86.4000015,   929.776489
   5036,   397.147888,   86.4000015,   917.754639
   5037,   425.779297,   86.4000015,   904.827026
   5038,   453.990509,   86.4000015,   891.006531
   5039,   481.753662,   86.4000015,   876.306702
   5040,   509.041412,   86.4000015,   860.742004
   5041,   535.826782,   86.4000015,   844.327942
   5042,   562.083374,   86.4000015,   827.080566
   5043,   587.785278,   86.4000015,   809.016968
   5044,   612.907043,   86.4000015,   790.155029
   5045,   637.424011,   86.4000015,   770.513245
   5046,    661.31189,   86.4000015,   750.111084
   5047,   684.547119,   86.4000015,   728.968628
   5048,   707.106812,   86.4000015,   707.106812
   5049,   728.968628,   86.4000015,   684.547119
   5050,   750.111084,   86.4000015,    661.31189
   5051,   770.513245,   86.4000015,   637.424011
   5052,   790.155029,   86.4000015,   612.907043
   5053,   809.016968,   86.4000015,   587.785278
   5054,   827.080566,   86.4000015,   562.083374
   5055,   844.327942,   86.4000015,   535.826782
   5056,   860.742004,   86.4000015,   509.041412
   5057,   876.306702,   86.4000015,   481.753662
   5058,   891.006531,   86.4000015,   453.990509
   5059,   904.827026,   86.4000015,   425.779297
   5060,   917.754639,   86.4000015,   397.147888
   5061,   929.776489,   86.4000015,   368.124542
   5062,   940.880798,   86.4000015,   338.737915
   5063,   951.056519,   86.4000015,   309.016998
   5064,   960.293701,   86.4000015,   278.991119
   5065,   968.583191,   86.4000015,    248.68988
   5066,   975.916748,   86.4000015,   218.143234
   5067,   982.287231,   86.4000015,   187.381317
   5068,   987.688354,   86.4000015,   156.434464
   5069,   992.114685,   86.4000015,   125.333237
   5070,   995.561951,   86.4000015,   94.1083145
   5071,   998.026733,   86.4000015,   62.7905197
   5072,   999.506531,   86.4000015,    31.410759
   5073,  -999.506531,   79.1999969,    31.410759
   5074,  -998.026733,   79.1999969,   62.7905197
   5075,  -995.561951,   79.1999969,   94.1083145
   5076,  -992.114685,   79.1999969,   125.333237
   5077,  -987.688354,   79.1999969,   156.434464
   5078,  -982.287231,   79.1999969,   187.381317
   5079,  -975.916748,   79.1999969,   218.143234
   5080,  -968.583191,   79.1999969,    248.68988
   5081,  -960.293701,   79.1999969,   278.991119
   5082,  -951.056519,   79.1999969,   309.016998
   5083,  -940.880798,   79.1999969,   338.737915
   5084,  -929.776489,   79.1999969,   368.124542
   5085,  -917.754639,   79.1999969,   397.147888
   5086,  -904.827026,   79.1999969,   425.779297
   5087,  -891.006531,   79.1999969,   453.990509
   5088,  -876.306702,   79.1999969,   481.753662
   5089,  -860.742004,   79.1999969,   509.041412
   5090,  -844.327942,   79.1999969,   535.826782
   5091,  -827.080566,   79.1999969,   562.083374
   5092,  -809.016968,   79.1999969,   587.785278
   5093,  -790.155029,   79.1999969,   612.907043
   5094,  -770.513245,   79.1999969,   637.424011
   5095,  -750.111084,   79.1999969,    661.31189
   5096,  -728.968628,   79.1999969,   684.547119
   5097,  -707.106812,   79.1999969,   707.106812
   5098,  -684.547119,   79.1999969,   728.968628
   5099,   -661.31189,   79.1999969,   750.111084
   5100,  -637.424011,   79.1999969,   770.513245
   5101,  -612.907043,   79.1999969,   790.155029
   5102,  -587.785278,   79.1999969,   809.016968
   5103,  -562.083374,   79.1999969,   827.080566
   5104,  -535.826782,   79.1999969,   844.327942
   5105,  -509.041412,   79.1999969,   860.742004
   5106,  -481.753662,   79.1999969,   876.306702
   5107,  -453.990509,   79.1999969,   891.006531
   5108,  -425.779297,   79.1999969,   904.827026
   5109,  -397.147888,   79.1999969,   917.754639
   5110,  -368.124542,   79.1999969,   929.776489
   5111,  -338.737915,   79.1999969,   940.880798
   5112,  -309.016998,   79.1999969,   951.056519
   5113,  -278.991119,   79.1999969,   960.293701
   5114,   -248.68988,   79.1999969,   968.583191
   5115,  -218.143234,   79.1999969,   975.916748
   5116,  -187.381317,   79.1999969,   982.287231
   5117,  -156.434464,   79.1999969,   987.688354
   5118,  -125.333237,   79.1999969,   992.114685
   5119,  -94.1083145,   79.1999969,   995.561951
   5120,  -62.7905197,   79.1999969,   998.026733
   5121,   -31.410759,   79.1999969,   999.506531
   5122,           0.,   79.1999969,        1000.
   5123,    31.410759,   79.1999969,   999.506531
   5124,   62.7905197,   79.1999969,   998.026733
   5125,   94.1083145,   79.1999969,   995.561951
   5126,   125.333237,   79.1999969,   992.114685
   5127,   156.434464,   79.1999969,   987.688354
   5128,   187.381317,   79.1999969,   982.287231
   5129,   218.143234,   79.1999969,   975.916748
   5130,    248.68988,   79.1999969,   968.583191
   5131,   278.991119,   79.1999969,   960.293701
   5132,   309.016998,   79.1999969,   951.056519
   5133,   338.737915,   79.1999969,   940.880798
   5134,   368.124542,   79.1999969,   929.776489
   5135,   397.147888,   79.1999969,   917.754639
   5136,   425.779297,   79.1999969,   904.827026
   5137,   453.990509,   79.1999969,   891.006531
   5138,   481.753662,   79.1999969,   876.306702
   5139,   509.041412,   79.1999969,   860.742004
   5140,   535.826782,   79.1999969,   844.327942
   5141,   562.083374,   79.1999969,   827.080566
   5142,   587.785278,   79.1999969,   809.016968
   5143,   612.907043,   79.1999969,   790.155029
   5144,   637.424011,   79.1999969,   770.513245
   5145,    661.31189,   79.1999969,   750.111084
   5146,   684.547119,   79.1999969,   728.968628
   5147,   707.106812,   79.1999969,   707.106812
   5148,   728.968628,   79.1999969,   684.547119
   5149,   750.111084,   79.1999969,    661.31189
   5150,   770.513245,   79.1999969,   637.424011
   5151,   790.155029,   79.1999969,   612.907043
   5152,   809.016968,   79.1999969,   587.785278
   5153,   827.080566,   79.1999969,   562.083374
   5154,   844.327942,   79.1999969,   535.826782
   5155,   860.742004,   79.1999969,   509.041412
   5156,   876.306702,   79.1999969,   481.753662
   5157,   891.006531,   79.1999969,   453.990509
   5158,   904.827026,   79.1999969,   425.779297
   5159,   917.754639,   79.1999969,   397.147888
   5160,   929.776489,   79.1999969,   368.124542
   5161,   940.880798,   79.1999969,   338.737915
   5162,   951.056519,   79.1999969,   309.016998
   5163,   960.293701,   79.1999969,   278.991119
   5164,   968.583191,   79.1999969,    248.68988
   5165,   975.916748,   79.1999969,   218.143234
   5166,   982.287231,   79.1999969,   187.381317
   5167,   987.688354,   79.1999969,   156.434464
   5168,   992.114685,   79.1999969,   125.333237
   5169,   995.561951,   79.1999969,   94.1083145
   5170,   998.026733,   79.1999969,   62.7905197
   5171,   999.506531,   79.1999969,    31.410759
   5172,  -999.506531,          72.,    31.410759
   5173,  -998.026733,          72.,   62.7905197
   5174,  -995.561951,          72.,   94.1083145
   5175,  -992.114685,          72.,   125.333237
   5176,  -987.688354,          72.,   156.434464
   5177,  -982.287231,          72.,   187.381317
   5178,  -975.916748,          72.,   218.143234
   5179,  -968.583191,          72.,    248.68988
   5180,  -960.293701,          72.,   278.991119
   5181,  -951.056519,          72.,   309.016998
   5182,  -940.880798,          72.,   338.737915
   5183,  -929.776489,          72.,   368.124542
   5184,  -917.754639,          72.,   397.147888
   5185,  -904.827026,          72.,   425.779297
   5186,  -891.006531,          72.,   453.990509
   5187,  -876.306702,          72.,   481.753662
   5188,  -860.742004,          72.,   509.041412
   5189,  -844.327942,          72.,   535.826782
   5190,  -827.080566,          72.,   562.083374
   5191,  -809.016968,          72.,   587.785278
   5192,  -790.155029,          72.,   612.907043
   5193,  -770.513245,          72.,   637.424011
   5194,  -750.111084,          72.,    661.31189
   5195,  -728.968628,          72.,   684.547119
   5196,  -707.106812,          72.,   707.106812
   5197,  -684.547119,          72.,   728.968628
   5198,   -661.31189,          72.,   750.111084
   5199,  -637.424011,          72.,   770.513245
   5200,  -612.907043,          72.,   790.155029
   5201,  -587.785278,          72.,   809.016968
   5202,  -562.083374,          72.,   827.080566
   5203,  -535.826782,          72.,   844.327942
   5204,  -509.041412,          72.,   860.742004
   5205,  -481.753662,          72.,   876.306702
   5206,  -453.990509,          72.,   891.006531
   5207,  -425.779297,          72.,   904.827026
   5208,  -397.147888,          72.,   917.754639
   5209,  -368.124542,          72.,   929.776489
   5210,  -338.737915,          72.,   940.880798
   5211,  -309.016998,          72.,   951.056519
   5212,  -278.991119,          72.,   960.293701
   5213,   -248.68988,          72.,   968.583191
   5214,  -218.143234,          72.,   975.916748
   5215,  -187.381317,          72.,   982.287231
   5216,  -156.434464,          72.,   987.688354
   5217,  -125.333237,          72.,   992.114685
   5218,  -94.1083145,          72.,   995.561951
   5219,  -62.7905197,          72.,   998.026733
   5220,   -31.410759,          72.,   999.506531
   5221,           0.,          72.,        1000.
   5222,    31.410759,          72.,   999.506531
   5223,   62.7905197,          72.,   998.026733
   5224,   94.1083145,          72.,   995.561951
   5225,   125.333237,          72.,   992.114685
   5226,   156.434464,          72.,   987.688354
   5227,   187.381317,          72.,   982.287231
   5228,   218.143234,          72.,   975.916748
   5229,    248.68988,          72.,   968.583191
   5230,   278.991119,          72.,   960.293701
   5231,   309.016998,          72.,   951.056519
   5232,   338.737915,          72.,   940.880798
   5233,   368.124542,          72.,   929.776489
   5234,   397.147888,          72.,   917.754639
   5235,   425.779297,          72.,   904.827026
   5236,   453.990509,          72.,   891.006531
   5237,   481.753662,          72.,   876.306702
   5238,   509.041412,          72.,   860.742004
   5239,   535.826782,          72.,   844.327942
   5240,   562.083374,          72.,   827.080566
   5241,   587.785278,          72.,   809.016968
   5242,   612.907043,          72.,   790.155029
   5243,   637.424011,          72.,   770.513245
   5244,    661.31189,          72.,   750.111084
   5245,   684.547119,          72.,   728.968628
   5246,   707.106812,          72.,   707.106812
   5247,   728.968628,          72.,   684.547119
   5248,   750.111084,          72.,    661.31189
   5249,   770.513245,          72.,   637.424011
   5250,   790.155029,          72.,   612.907043
   5251,   809.016968,          72.,   587.785278
   5252,   827.080566,          72.,   562.083374
   5253,   844.327942,          72.,   535.826782
   5254,   860.742004,          72.,   509.041412
   5255,   876.306702,          72.,   481.753662
   5256,   891.006531,          72.,   453.990509
   5257,   904.827026,          72.,   425.779297
   5258,   917.754639,          72.,   397.147888
   5259,   929.776489,          72.,   368.124542
   5260,   940.880798,          72.,   338.737915
   5261,   951.056519,          72.,   309.016998
   5262,   960.293701,          72.,   278.991119
   5263,   968.583191,          72.,    248.68988
   5264,   975.916748,          72.,   218.143234
   5265,   982.287231,          72.,   187.381317
   5266,   987.688354,          72.,   156.434464
   5267,   992.114685,          72.,   125.333237
   5268,   995.561951,          72.,   94.1083145
   5269,   998.026733,          72.,   62.7905197
   5270,   999.506531,          72.,    31.410759
   5271,  -999.506531,   64.8000031,    31.410759
   5272,  -998.026733,   64.8000031,   62.7905197
   5273,  -995.561951,   64.8000031,   94.1083145
   5274,  -992.114685,   64.8000031,   125.333237
   5275,  -987.688354,   64.8000031,   156.434464
   5276,  -982.287231,   64.8000031,   187.381317
   5277,  -975.916748,   64.8000031,   218.143234
   5278,  -968.583191,   64.8000031,    248.68988
   5279,  -960.293701,   64.8000031,   278.991119
   5280,  -951.056519,   64.8000031,   309.016998
   5281,  -940.880798,   64.8000031,   338.737915
   5282,  -929.776489,   64.8000031,   368.124542
   5283,  -917.754639,   64.8000031,   397.147888
   5284,  -904.827026,   64.8000031,   425.779297
   5285,  -891.006531,   64.8000031,   453.990509
   5286,  -876.306702,   64.8000031,   481.753662
   5287,  -860.742004,   64.8000031,   509.041412
   5288,  -844.327942,   64.8000031,   535.826782
   5289,  -827.080566,   64.8000031,   562.083374
   5290,  -809.016968,   64.8000031,   587.785278
   5291,  -790.155029,   64.8000031,   612.907043
   5292,  -770.513245,   64.8000031,   637.424011
   5293,  -750.111084,   64.8000031,    661.31189
   5294,  -728.968628,   64.8000031,   684.547119
   5295,  -707.106812,   64.8000031,   707.106812
   5296,  -684.547119,   64.8000031,   728.968628
   5297,   -661.31189,   64.8000031,   750.111084
   5298,  -637.424011,   64.8000031,   770.513245
   5299,  -612.907043,   64.8000031,   790.155029
   5300,  -587.785278,   64.8000031,   809.016968
   5301,  -562.083374,   64.8000031,   827.080566
   5302,  -535.826782,   64.8000031,   844.327942
   5303,  -509.041412,   64.8000031,   860.742004
   5304,  -481.753662,   64.8000031,   876.306702
   5305,  -453.990509,   64.8000031,   891.006531
   5306,  -425.779297,   64.8000031,   904.827026
   5307,  -397.147888,   64.8000031,   917.754639
   5308,  -368.124542,   64.8000031,   929.776489
   5309,  -338.737915,   64.8000031,   940.880798
   5310,  -309.016998,   64.8000031,   951.056519
   5311,  -278.991119,   64.8000031,   960.293701
   5312,   -248.68988,   64.8000031,   968.583191
   5313,  -218.143234,   64.8000031,   975.916748
   5314,  -187.381317,   64.8000031,   982.287231
   5315,  -156.434464,   64.8000031,   987.688354
   5316,  -125.333237,   64.8000031,   992.114685
   5317,  -94.1083145,   64.8000031,   995.561951
   5318,  -62.7905197,   64.8000031,   998.026733
   5319,   -31.410759,   64.8000031,   999.506531
   5320,           0.,   64.8000031,        1000.
   5321,    31.410759,   64.8000031,   999.506531
   5322,   62.7905197,   64.8000031,   998.026733
   5323,   94.1083145,   64.8000031,   995.561951
   5324,   125.333237,   64.8000031,   992.114685
   5325,   156.434464,   64.8000031,   987.688354
   5326,   187.381317,   64.8000031,   982.287231
   5327,   218.143234,   64.8000031,   975.916748
   5328,    248.68988,   64.8000031,   968.583191
   5329,   278.991119,   64.8000031,   960.293701
   5330,   309.016998,   64.8000031,   951.056519
   5331,   338.737915,   64.8000031,   940.880798
   5332,   368.124542,   64.8000031,   929.776489
   5333,   397.147888,   64.8000031,   917.754639
   5334,   425.779297,   64.8000031,   904.827026
   5335,   453.990509,   64.8000031,   891.006531
   5336,   481.753662,   64.8000031,   876.306702
   5337,   509.041412,   64.8000031,   860.742004
   5338,   535.826782,   64.8000031,   844.327942
   5339,   562.083374,   64.8000031,   827.080566
   5340,   587.785278,   64.8000031,   809.016968
   5341,   612.907043,   64.8000031,   790.155029
   5342,   637.424011,   64.8000031,   770.513245
   5343,    661.31189,   64.8000031,   750.111084
   5344,   684.547119,   64.8000031,   728.968628
   5345,   707.106812,   64.8000031,   707.106812
   5346,   728.968628,   64.8000031,   684.547119
   5347,   750.111084,   64.8000031,    661.31189
   5348,   770.513245,   64.8000031,   637.424011
   5349,   790.155029,   64.8000031,   612.907043
   5350,   809.016968,   64.8000031,   587.785278
   5351,   827.080566,   64.8000031,   562.083374
   5352,   844.327942,   64.8000031,   535.826782
   5353,   860.742004,   64.8000031,   509.041412
   5354,   876.306702,   64.8000031,   481.753662
   5355,   891.006531,   64.8000031,   453.990509
   5356,   904.827026,   64.8000031,   425.779297
   5357,   917.754639,   64.8000031,   397.147888
   5358,   929.776489,   64.8000031,   368.124542
   5359,   940.880798,   64.8000031,   338.737915
   5360,   951.056519,   64.8000031,   309.016998
   5361,   960.293701,   64.8000031,   278.991119
   5362,   968.583191,   64.8000031,    248.68988
   5363,   975.916748,   64.8000031,   218.143234
   5364,   982.287231,   64.8000031,   187.381317
   5365,   987.688354,   64.8000031,   156.434464
   5366,   992.114685,   64.8000031,   125.333237
   5367,   995.561951,   64.8000031,   94.1083145
   5368,   998.026733,   64.8000031,   62.7905197
   5369,   999.506531,   64.8000031,    31.410759
   5370,  -999.506531,   57.5999985,    31.410759
   5371,  -998.026733,   57.5999985,   62.7905197
   5372,  -995.561951,   57.5999985,   94.1083145
   5373,  -992.114685,   57.5999985,   125.333237
   5374,  -987.688354,   57.5999985,   156.434464
   5375,  -982.287231,   57.5999985,   187.381317
   5376,  -975.916748,   57.5999985,   218.143234
   5377,  -968.583191,   57.5999985,    248.68988
   5378,  -960.293701,   57.5999985,   278.991119
   5379,  -951.056519,   57.5999985,   309.016998
   5380,  -940.880798,   57.5999985,   338.737915
   5381,  -929.776489,   57.5999985,   368.124542
   5382,  -917.754639,   57.5999985,   397.147888
   5383,  -904.827026,   57.5999985,   425.779297
   5384,  -891.006531,   57.5999985,   453.990509
   5385,  -876.306702,   57.5999985,   481.753662
   5386,  -860.742004,   57.5999985,   509.041412
   5387,  -844.327942,   57.5999985,   535.826782
   5388,  -827.080566,   57.5999985,   562.083374
   5389,  -809.016968,   57.5999985,   587.785278
   5390,  -790.155029,   57.5999985,   612.907043
   5391,  -770.513245,   57.5999985,   637.424011
   5392,  -750.111084,   57.5999985,    661.31189
   5393,  -728.968628,   57.5999985,   684.547119
   5394,  -707.106812,   57.5999985,   707.106812
   5395,  -684.547119,   57.5999985,   728.968628
   5396,   -661.31189,   57.5999985,   750.111084
   5397,  -637.424011,   57.5999985,   770.513245
   5398,  -612.907043,   57.5999985,   790.155029
   5399,  -587.785278,   57.5999985,   809.016968
   5400,  -562.083374,   57.5999985,   827.080566
   5401,  -535.826782,   57.5999985,   844.327942
   5402,  -509.041412,   57.5999985,   860.742004
   5403,  -481.753662,   57.5999985,   876.306702
   5404,  -453.990509,   57.5999985,   891.006531
   5405,  -425.779297,   57.5999985,   904.827026
   5406,  -397.147888,   57.5999985,   917.754639
   5407,  -368.124542,   57.5999985,   929.776489
   5408,  -338.737915,   57.5999985,   940.880798
   5409,  -309.016998,   57.5999985,   951.056519
   5410,  -278.991119,   57.5999985,   960.293701
   5411,   -248.68988,   57.5999985,   968.583191
   5412,  -218.143234,   57.5999985,   975.916748
   5413,  -187.381317,   57.5999985,   982.287231
   5414,  -156.434464,   57.5999985,   987.688354
   5415,  -125.333237,   57.5999985,   992.114685
   5416,  -94.1083145,   57.5999985,   995.561951
   5417,  -62.7905197,   57.5999985,   998.026733
   5418,   -31.410759,   57.5999985,   999.506531
   5419,           0.,   57.5999985,        1000.
   5420,    31.410759,   57.5999985,   999.506531
   5421,   62.7905197,   57.5999985,   998.026733
   5422,   94.1083145,   57.5999985,   995.561951
   5423,   125.333237,   57.5999985,   992.114685
   5424,   156.434464,   57.5999985,   987.688354
   5425,   187.381317,   57.5999985,   982.287231
   5426,   218.143234,   57.5999985,   975.916748
   5427,    248.68988,   57.5999985,   968.583191
   5428,   278.991119,   57.5999985,   960.293701
   5429,   309.016998,   57.5999985,   951.056519
   5430,   338.737915,   57.5999985,   940.880798
   5431,   368.124542,   57.5999985,   929.776489
   5432,   397.147888,   57.5999985,   917.754639
   5433,   425.779297,   57.5999985,   904.827026
   5434,   453.990509,   57.5999985,   891.006531
   5435,   481.753662,   57.5999985,   876.306702
   5436,   509.041412,   57.5999985,   860.742004
   5437,   535.826782,   57.5999985,   844.327942
   5438,   562.083374,   57.5999985,   827.080566
   5439,   587.785278,   57.5999985,   809.016968
   5440,   612.907043,   57.5999985,   790.155029
   5441,   637.424011,   57.5999985,   770.513245
   5442,    661.31189,   57.5999985,   750.111084
   5443,   684.547119,   57.5999985,   728.968628
   5444,   707.106812,   57.5999985,   707.106812
   5445,   728.968628,   57.5999985,   684.547119
   5446,   750.111084,   57.5999985,    661.31189
   5447,   770.513245,   57.5999985,   637.424011
   5448,   790.155029,   57.5999985,   612.907043
   5449,   809.016968,   57.5999985,   587.785278
   5450,   827.080566,   57.5999985,   562.083374
   5451,   844.327942,   57.5999985,   535.826782
   5452,   860.742004,   57.5999985,   509.041412
   5453,   876.306702,   57.5999985,   481.753662
   5454,   891.006531,   57.5999985,   453.990509
   5455,   904.827026,   57.5999985,   425.779297
   5456,   917.754639,   57.5999985,   397.147888
   5457,   929.776489,   57.5999985,   368.124542
   5458,   940.880798,   57.5999985,   338.737915
   5459,   951.056519,   57.5999985,   309.016998
   5460,   960.293701,   57.5999985,   278.991119
   5461,   968.583191,   57.5999985,    248.68988
   5462,   975.916748,   57.5999985,   218.143234
   5463,   982.287231,   57.5999985,   187.381317
   5464,   987.688354,   57.5999985,   156.434464
   5465,   992.114685,   57.5999985,   125.333237
   5466,   995.561951,   57.5999985,   94.1083145
   5467,   998.026733,   57.5999985,   62.7905197
   5468,   999.506531,   57.5999985,    31.410759
   5469,  -999.506531,   50.4000015,    31.410759
   5470,  -998.026733,   50.4000015,   62.7905197
   5471,  -995.561951,   50.4000015,   94.1083145
   5472,  -992.114685,   50.4000015,   125.333237
   5473,  -987.688354,   50.4000015,   156.434464
   5474,  -982.287231,   50.4000015,   187.381317
   5475,  -975.916748,   50.4000015,   218.143234
   5476,  -968.583191,   50.4000015,    248.68988
   5477,  -960.293701,   50.4000015,   278.991119
   5478,  -951.056519,   50.4000015,   309.016998
   5479,  -940.880798,   50.4000015,   338.737915
   5480,  -929.776489,   50.4000015,   368.124542
   5481,  -917.754639,   50.4000015,   397.147888
   5482,  -904.827026,   50.4000015,   425.779297
   5483,  -891.006531,   50.4000015,   453.990509
   5484,  -876.306702,   50.4000015,   481.753662
   5485,  -860.742004,   50.4000015,   509.041412
   5486,  -844.327942,   50.4000015,   535.826782
   5487,  -827.080566,   50.4000015,   562.083374
   5488,  -809.016968,   50.4000015,   587.785278
   5489,  -790.155029,   50.4000015,   612.907043
   5490,  -770.513245,   50.4000015,   637.424011
   5491,  -750.111084,   50.4000015,    661.31189
   5492,  -728.968628,   50.4000015,   684.547119
   5493,  -707.106812,   50.4000015,   707.106812
   5494,  -684.547119,   50.4000015,   728.968628
   5495,   -661.31189,   50.4000015,   750.111084
   5496,  -637.424011,   50.4000015,   770.513245
   5497,  -612.907043,   50.4000015,   790.155029
   5498,  -587.785278,   50.4000015,   809.016968
   5499,  -562.083374,   50.4000015,   827.080566
   5500,  -535.826782,   50.4000015,   844.327942
   5501,  -509.041412,   50.4000015,   860.742004
   5502,  -481.753662,   50.4000015,   876.306702
   5503,  -453.990509,   50.4000015,   891.006531
   5504,  -425.779297,   50.4000015,   904.827026
   5505,  -397.147888,   50.4000015,   917.754639
   5506,  -368.124542,   50.4000015,   929.776489
   5507,  -338.737915,   50.4000015,   940.880798
   5508,  -309.016998,   50.4000015,   951.056519
   5509,  -278.991119,   50.4000015,   960.293701
   5510,   -248.68988,   50.4000015,   968.583191
   5511,  -218.143234,   50.4000015,   975.916748
   5512,  -187.381317,   50.4000015,   982.287231
   5513,  -156.434464,   50.4000015,   987.688354
   5514,  -125.333237,   50.4000015,   992.114685
   5515,  -94.1083145,   50.4000015,   995.561951
   5516,  -62.7905197,   50.4000015,   998.026733
   5517,   -31.410759,   50.4000015,   999.506531
   5518,           0.,   50.4000015,        1000.
   5519,    31.410759,   50.4000015,   999.506531
   5520,   62.7905197,   50.4000015,   998.026733
   5521,   94.1083145,   50.4000015,   995.561951
   5522,   125.333237,   50.4000015,   992.114685
   5523,   156.434464,   50.4000015,   987.688354
   5524,   187.381317,   50.4000015,   982.287231
   5525,   218.143234,   50.4000015,   975.916748
   5526,    248.68988,   50.4000015,   968.583191
   5527,   278.991119,   50.4000015,   960.293701
   5528,   309.016998,   50.4000015,   951.056519
   5529,   338.737915,   50.4000015,   940.880798
   5530,   368.124542,   50.4000015,   929.776489
   5531,   397.147888,   50.4000015,   917.754639
   5532,   425.779297,   50.4000015,   904.827026
   5533,   453.990509,   50.4000015,   891.006531
   5534,   481.753662,   50.4000015,   876.306702
   5535,   509.041412,   50.4000015,   860.742004
   5536,   535.826782,   50.4000015,   844.327942
   5537,   562.083374,   50.4000015,   827.080566
   5538,   587.785278,   50.4000015,   809.016968
   5539,   612.907043,   50.4000015,   790.155029
   5540,   637.424011,   50.4000015,   770.513245
   5541,    661.31189,   50.4000015,   750.111084
   5542,   684.547119,   50.4000015,   728.968628
   5543,   707.106812,   50.4000015,   707.106812
   5544,   728.968628,   50.4000015,   684.547119
   5545,   750.111084,   50.4000015,    661.31189
   5546,   770.513245,   50.4000015,   637.424011
   5547,   790.155029,   50.4000015,   612.907043
   5548,   809.016968,   50.4000015,   587.785278
   5549,   827.080566,   50.4000015,   562.083374
   5550,   844.327942,   50.4000015,   535.826782
   5551,   860.742004,   50.4000015,   509.041412
   5552,   876.306702,   50.4000015,   481.753662
   5553,   891.006531,   50.4000015,   453.990509
   5554,   904.827026,   50.4000015,   425.779297
   5555,   917.754639,   50.4000015,   397.147888
   5556,   929.776489,   50.4000015,   368.124542
   5557,   940.880798,   50.4000015,   338.737915
   5558,   951.056519,   50.4000015,   309.016998
   5559,   960.293701,   50.4000015,   278.991119
   5560,   968.583191,   50.4000015,    248.68988
   5561,   975.916748,   50.4000015,   218.143234
   5562,   982.287231,   50.4000015,   187.381317
   5563,   987.688354,   50.4000015,   156.434464
   5564,   992.114685,   50.4000015,   125.333237
   5565,   995.561951,   50.4000015,   94.1083145
   5566,   998.026733,   50.4000015,   62.7905197
   5567,   999.506531,   50.4000015,    31.410759
   5568,  -999.506531,   43.2000008,    31.410759
   5569,  -998.026733,   43.2000008,   62.7905197
   5570,  -995.561951,   43.2000008,   94.1083145
   5571,  -992.114685,   43.2000008,   125.333237
   5572,  -987.688354,   43.2000008,   156.434464
   5573,  -982.287231,   43.2000008,   187.381317
   5574,  -975.916748,   43.2000008,   218.143234
   5575,  -968.583191,   43.2000008,    248.68988
   5576,  -960.293701,   43.2000008,   278.991119
   5577,  -951.056519,   43.2000008,   309.016998
   5578,  -940.880798,   43.2000008,   338.737915
   5579,  -929.776489,   43.2000008,   368.124542
   5580,  -917.754639,   43.2000008,   397.147888
   5581,  -904.827026,   43.2000008,   425.779297
   5582,  -891.006531,   43.2000008,   453.990509
   5583,  -876.306702,   43.2000008,   481.753662
   5584,  -860.742004,   43.2000008,   509.041412
   5585,  -844.327942,   43.2000008,   535.826782
   5586,  -827.080566,   43.2000008,   562.083374
   5587,  -809.016968,   43.2000008,   587.785278
   5588,  -790.155029,   43.2000008,   612.907043
   5589,  -770.513245,   43.2000008,   637.424011
   5590,  -750.111084,   43.2000008,    661.31189
   5591,  -728.968628,   43.2000008,   684.547119
   5592,  -707.106812,   43.2000008,   707.106812
   5593,  -684.547119,   43.2000008,   728.968628
   5594,   -661.31189,   43.2000008,   750.111084
   5595,  -637.424011,   43.2000008,   770.513245
   5596,  -612.907043,   43.2000008,   790.155029
   5597,  -587.785278,   43.2000008,   809.016968
   5598,  -562.083374,   43.2000008,   827.080566
   5599,  -535.826782,   43.2000008,   844.327942
   5600,  -509.041412,   43.2000008,   860.742004
   5601,  -481.753662,   43.2000008,   876.306702
   5602,  -453.990509,   43.2000008,   891.006531
   5603,  -425.779297,   43.2000008,   904.827026
   5604,  -397.147888,   43.2000008,   917.754639
   5605,  -368.124542,   43.2000008,   929.776489
   5606,  -338.737915,   43.2000008,   940.880798
   5607,  -309.016998,   43.2000008,   951.056519
   5608,  -278.991119,   43.2000008,   960.293701
   5609,   -248.68988,   43.2000008,   968.583191
   5610,  -218.143234,   43.2000008,   975.916748
   5611,  -187.381317,   43.2000008,   982.287231
   5612,  -156.434464,   43.2000008,   987.688354
   5613,  -125.333237,   43.2000008,   992.114685
   5614,  -94.1083145,   43.2000008,   995.561951
   5615,  -62.7905197,   43.2000008,   998.026733
   5616,   -31.410759,   43.2000008,   999.506531
   5617,           0.,   43.2000008,        1000.
   5618,    31.410759,   43.2000008,   999.506531
   5619,   62.7905197,   43.2000008,   998.026733
   5620,   94.1083145,   43.2000008,   995.561951
   5621,   125.333237,   43.2000008,   992.114685
   5622,   156.434464,   43.2000008,   987.688354
   5623,   187.381317,   43.2000008,   982.287231
   5624,   218.143234,   43.2000008,   975.916748
   5625,    248.68988,   43.2000008,   968.583191
   5626,   278.991119,   43.2000008,   960.293701
   5627,   309.016998,   43.2000008,   951.056519
   5628,   338.737915,   43.2000008,   940.880798
   5629,   368.124542,   43.2000008,   929.776489
   5630,   397.147888,   43.2000008,   917.754639
   5631,   425.779297,   43.2000008,   904.827026
   5632,   453.990509,   43.2000008,   891.006531
   5633,   481.753662,   43.2000008,   876.306702
   5634,   509.041412,   43.2000008,   860.742004
   5635,   535.826782,   43.2000008,   844.327942
   5636,   562.083374,   43.2000008,   827.080566
   5637,   587.785278,   43.2000008,   809.016968
   5638,   612.907043,   43.2000008,   790.155029
   5639,   637.424011,   43.2000008,   770.513245
   5640,    661.31189,   43.2000008,   750.111084
   5641,   684.547119,   43.2000008,   728.968628
   5642,   707.106812,   43.2000008,   707.106812
   5643,   728.968628,   43.2000008,   684.547119
   5644,   750.111084,   43.2000008,    661.31189
   5645,   770.513245,   43.2000008,   637.424011
   5646,   790.155029,   43.2000008,   612.907043
   5647,   809.016968,   43.2000008,   587.785278
   5648,   827.080566,   43.2000008,   562.083374
   5649,   844.327942,   43.2000008,   535.826782
   5650,   860.742004,   43.2000008,   509.041412
   5651,   876.306702,   43.2000008,   481.753662
   5652,   891.006531,   43.2000008,   453.990509
   5653,   904.827026,   43.2000008,   425.779297
   5654,   917.754639,   43.2000008,   397.147888
   5655,   929.776489,   43.2000008,   368.124542
   5656,   940.880798,   43.2000008,   338.737915
   5657,   951.056519,   43.2000008,   309.016998
   5658,   960.293701,   43.2000008,   278.991119
   5659,   968.583191,   43.2000008,    248.68988
   5660,   975.916748,   43.2000008,   218.143234
   5661,   982.287231,   43.2000008,   187.381317
   5662,   987.688354,   43.2000008,   156.434464
   5663,   992.114685,   43.2000008,   125.333237
   5664,   995.561951,   43.2000008,   94.1083145
   5665,   998.026733,   43.2000008,   62.7905197
   5666,   999.506531,   43.2000008,    31.410759
   5667,  -999.506531,          36.,    31.410759
   5668,  -998.026733,          36.,   62.7905197
   5669,  -995.561951,          36.,   94.1083145
   5670,  -992.114685,          36.,   125.333237
   5671,  -987.688354,          36.,   156.434464
   5672,  -982.287231,          36.,   187.381317
   5673,  -975.916748,          36.,   218.143234
   5674,  -968.583191,          36.,    248.68988
   5675,  -960.293701,          36.,   278.991119
   5676,  -951.056519,          36.,   309.016998
   5677,  -940.880798,          36.,   338.737915
   5678,  -929.776489,          36.,   368.124542
   5679,  -917.754639,          36.,   397.147888
   5680,  -904.827026,          36.,   425.779297
   5681,  -891.006531,          36.,   453.990509
   5682,  -876.306702,          36.,   481.753662
   5683,  -860.742004,          36.,   509.041412
   5684,  -844.327942,          36.,   535.826782
   5685,  -827.080566,          36.,   562.083374
   5686,  -809.016968,          36.,   587.785278
   5687,  -790.155029,          36.,   612.907043
   5688,  -770.513245,          36.,   637.424011
   5689,  -750.111084,          36.,    661.31189
   5690,  -728.968628,          36.,   684.547119
   5691,  -707.106812,          36.,   707.106812
   5692,  -684.547119,          36.,   728.968628
   5693,   -661.31189,          36.,   750.111084
   5694,  -637.424011,          36.,   770.513245
   5695,  -612.907043,          36.,   790.155029
   5696,  -587.785278,          36.,   809.016968
   5697,  -562.083374,          36.,   827.080566
   5698,  -535.826782,          36.,   844.327942
   5699,  -509.041412,          36.,   860.742004
   5700,  -481.753662,          36.,   876.306702
   5701,  -453.990509,          36.,   891.006531
   5702,  -425.779297,          36.,   904.827026
   5703,  -397.147888,          36.,   917.754639
   5704,  -368.124542,          36.,   929.776489
   5705,  -338.737915,          36.,   940.880798
   5706,  -309.016998,          36.,   951.056519
   5707,  -278.991119,          36.,   960.293701
   5708,   -248.68988,          36.,   968.583191
   5709,  -218.143234,          36.,   975.916748
   5710,  -187.381317,          36.,   982.287231
   5711,  -156.434464,          36.,   987.688354
   5712,  -125.333237,          36.,   992.114685
   5713,  -94.1083145,          36.,   995.561951
   5714,  -62.7905197,          36.,   998.026733
   5715,   -31.410759,          36.,   999.506531
   5716,           0.,          36.,        1000.
   5717,    31.410759,          36.,   999.506531
   5718,   62.7905197,          36.,   998.026733
   5719,   94.1083145,          36.,   995.561951
   5720,   125.333237,          36.,   992.114685
   5721,   156.434464,          36.,   987.688354
   5722,   187.381317,          36.,   982.287231
   5723,   218.143234,          36.,   975.916748
   5724,    248.68988,          36.,   968.583191
   5725,   278.991119,          36.,   960.293701
   5726,   309.016998,          36.,   951.056519
   5727,   338.737915,          36.,   940.880798
   5728,   368.124542,          36.,   929.776489
   5729,   397.147888,          36.,   917.754639
   5730,   425.779297,          36.,   904.827026
   5731,   453.990509,          36.,   891.006531
   5732,   481.753662,          36.,   876.306702
   5733,   509.041412,          36.,   860.742004
   5734,   535.826782,          36.,   844.327942
   5735,   562.083374,          36.,   827.080566
   5736,   587.785278,          36.,   809.016968
   5737,   612.907043,          36.,   790.155029
   5738,   637.424011,          36.,   770.513245
   5739,    661.31189,          36.,   750.111084
   5740,   684.547119,          36.,   728.968628
   5741,   707.106812,          36.,   707.106812
   5742,   728.968628,          36.,   684.547119
   5743,   750.111084,          36.,    661.31189
   5744,   770.513245,          36.,   637.424011
   5745,   790.155029,          36.,   612.907043
   5746,   809.016968,          36.,   587.785278
   5747,   827.080566,          36.,   562.083374
   5748,   844.327942,          36.,   535.826782
   5749,   860.742004,          36.,   509.041412
   5750,   876.306702,          36.,   481.753662
   5751,   891.006531,          36.,   453.990509
   5752,   904.827026,          36.,   425.779297
   5753,   917.754639,          36.,   397.147888
   5754,   929.776489,          36.,   368.124542
   5755,   940.880798,          36.,   338.737915
   5756,   951.056519,          36.,   309.016998
   5757,   960.293701,          36.,   278.991119
   5758,   968.583191,          36.,    248.68988
   5759,   975.916748,          36.,   218.143234
   5760,   982.287231,          36.,   187.381317
   5761,   987.688354,          36.,   156.434464
   5762,   992.114685,          36.,   125.333237
   5763,   995.561951,          36.,   94.1083145
   5764,   998.026733,          36.,   62.7905197
   5765,   999.506531,          36.,    31.410759
   5766,  -999.506531,   28.7999992,    31.410759
   5767,  -998.026733,   28.7999992,   62.7905197
   5768,  -995.561951,   28.7999992,   94.1083145
   5769,  -992.114685,   28.7999992,   125.333237
   5770,  -987.688354,   28.7999992,   156.434464
   5771,  -982.287231,   28.7999992,   187.381317
   5772,  -975.916748,   28.7999992,   218.143234
   5773,  -968.583191,   28.7999992,    248.68988
   5774,  -960.293701,   28.7999992,   278.991119
   5775,  -951.056519,   28.7999992,   309.016998
   5776,  -940.880798,   28.7999992,   338.737915
   5777,  -929.776489,   28.7999992,   368.124542
   5778,  -917.754639,   28.7999992,   397.147888
   5779,  -904.827026,   28.7999992,   425.779297
   5780,  -891.006531,   28.7999992,   453.990509
   5781,  -876.306702,   28.7999992,   481.753662
   5782,  -860.742004,   28.7999992,   509.041412
   5783,  -844.327942,   28.7999992,   535.826782
   5784,  -827.080566,   28.7999992,   562.083374
   5785,  -809.016968,   28.7999992,   587.785278
   5786,  -790.155029,   28.7999992,   612.907043
   5787,  -770.513245,   28.7999992,   637.424011
   5788,  -750.111084,   28.7999992,    661.31189
   5789,  -728.968628,   28.7999992,   684.547119
   5790,  -707.106812,   28.7999992,   707.106812
   5791,  -684.547119,   28.7999992,   728.968628
   5792,   -661.31189,   28.7999992,   750.111084
   5793,  -637.424011,   28.7999992,   770.513245
   5794,  -612.907043,   28.7999992,   790.155029
   5795,  -587.785278,   28.7999992,   809.016968
   5796,  -562.083374,   28.7999992,   827.080566
   5797,  -535.826782,   28.7999992,   844.327942
   5798,  -509.041412,   28.7999992,   860.742004
   5799,  -481.753662,   28.7999992,   876.306702
   5800,  -453.990509,   28.7999992,   891.006531
   5801,  -425.779297,   28.7999992,   904.827026
   5802,  -397.147888,   28.7999992,   917.754639
   5803,  -368.124542,   28.7999992,   929.776489
   5804,  -338.737915,   28.7999992,   940.880798
   5805,  -309.016998,   28.7999992,   951.056519
   5806,  -278.991119,   28.7999992,   960.293701
   5807,   -248.68988,   28.7999992,   968.583191
   5808,  -218.143234,   28.7999992,   975.916748
   5809,  -187.381317,   28.7999992,   982.287231
   5810,  -156.434464,   28.7999992,   987.688354
   5811,  -125.333237,   28.7999992,   992.114685
   5812,  -94.1083145,   28.7999992,   995.561951
   5813,  -62.7905197,   28.7999992,   998.026733
   5814,   -31.410759,   28.7999992,   999.506531
   5815,           0.,   28.7999992,        1000.
   5816,    31.410759,   28.7999992,   999.506531
   5817,   62.7905197,   28.7999992,   998.026733
   5818,   94.1083145,   28.7999992,   995.561951
   5819,   125.333237,   28.7999992,   992.114685
   5820,   156.434464,   28.7999992,   987.688354
   5821,   187.381317,   28.7999992,   982.287231
   5822,   218.143234,   28.7999992,   975.916748
   5823,    248.68988,   28.7999992,   968.583191
   5824,   278.991119,   28.7999992,   960.293701
   5825,   309.016998,   28.7999992,   951.056519
   5826,   338.737915,   28.7999992,   940.880798
   5827,   368.124542,   28.7999992,   929.776489
   5828,   397.147888,   28.7999992,   917.754639
   5829,   425.779297,   28.7999992,   904.827026
   5830,   453.990509,   28.7999992,   891.006531
   5831,   481.753662,   28.7999992,   876.306702
   5832,   509.041412,   28.7999992,   860.742004
   5833,   535.826782,   28.7999992,   844.327942
   5834,   562.083374,   28.7999992,   827.080566
   5835,   587.785278,   28.7999992,   809.016968
   5836,   612.907043,   28.7999992,   790.155029
   5837,   637.424011,   28.7999992,   770.513245
   5838,    661.31189,   28.7999992,   750.111084
   5839,   684.547119,   28.7999992,   728.968628
   5840,   707.106812,   28.7999992,   707.106812
   5841,   728.968628,   28.7999992,   684.547119
   5842,   750.111084,   28.7999992,    661.31189
   5843,   770.513245,   28.7999992,   637.424011
   5844,   790.155029,   28.7999992,   612.907043
   5845,   809.016968,   28.7999992,   587.785278
   5846,   827.080566,   28.7999992,   562.083374
   5847,   844.327942,   28.7999992,   535.826782
   5848,   860.742004,   28.7999992,   509.041412
   5849,   876.306702,   28.7999992,   481.753662
   5850,   891.006531,   28.7999992,   453.990509
   5851,   904.827026,   28.7999992,   425.779297
   5852,   917.754639,   28.7999992,   397.147888
   5853,   929.776489,   28.7999992,   368.124542
   5854,   940.880798,   28.7999992,   338.737915
   5855,   951.056519,   28.7999992,   309.016998
   5856,   960.293701,   28.7999992,   278.991119
   5857,   968.583191,   28.7999992,    248.68988
   5858,   975.916748,   28.7999992,   218.143234
   5859,   982.287231,   28.7999992,   187.381317
   5860,   987.688354,   28.7999992,   156.434464
   5861,   992.114685,   28.7999992,   125.333237
   5862,   995.561951,   28.7999992,   94.1083145
   5863,   998.026733,   28.7999992,   62.7905197
   5864,   999.506531,   28.7999992,    31.410759
   5865,  -999.506531,   21.6000004,    31.410759
   5866,  -998.026733,   21.6000004,   62.7905197
   5867,  -995.561951,   21.6000004,   94.1083145
   5868,  -992.114685,   21.6000004,   125.333237
   5869,  -987.688354,   21.6000004,   156.434464
   5870,  -982.287231,   21.6000004,   187.381317
   5871,  -975.916748,   21.6000004,   218.143234
   5872,  -968.583191,   21.6000004,    248.68988
   5873,  -960.293701,   21.6000004,   278.991119
   5874,  -951.056519,   21.6000004,   309.016998
   5875,  -940.880798,   21.6000004,   338.737915
   5876,  -929.776489,   21.6000004,   368.124542
   5877,  -917.754639,   21.6000004,   397.147888
   5878,  -904.827026,   21.6000004,   425.779297
   5879,  -891.006531,   21.6000004,   453.990509
   5880,  -876.306702,   21.6000004,   481.753662
   5881,  -860.742004,   21.6000004,   509.041412
   5882,  -844.327942,   21.6000004,   535.826782
   5883,  -827.080566,   21.6000004,   562.083374
   5884,  -809.016968,   21.6000004,   587.785278
   5885,  -790.155029,   21.6000004,   612.907043
   5886,  -770.513245,   21.6000004,   637.424011
   5887,  -750.111084,   21.6000004,    661.31189
   5888,  -728.968628,   21.6000004,   684.547119
   5889,  -707.106812,   21.6000004,   707.106812
   5890,  -684.547119,   21.6000004,   728.968628
   5891,   -661.31189,   21.6000004,   750.111084
   5892,  -637.424011,   21.6000004,   770.513245
   5893,  -612.907043,   21.6000004,   790.155029
   5894,  -587.785278,   21.6000004,   809.016968
   5895,  -562.083374,   21.6000004,   827.080566
   5896,  -535.826782,   21.6000004,   844.327942
   5897,  -509.041412,   21.6000004,   860.742004
   5898,  -481.753662,   21.6000004,   876.306702
   5899,  -453.990509,   21.6000004,   891.006531
   5900,  -425.779297,   21.6000004,   904.827026
   5901,  -397.147888,   21.6000004,   917.754639
   5902,  -368.124542,   21.6000004,   929.776489
   5903,  -338.737915,   21.6000004,   940.880798
   5904,  -309.016998,   21.6000004,   951.056519
   5905,  -278.991119,   21.6000004,   960.293701
   5906,   -248.68988,   21.6000004,   968.583191
   5907,  -218.143234,   21.6000004,   975.916748
   5908,  -187.381317,   21.6000004,   982.287231
   5909,  -156.434464,   21.6000004,   987.688354
   5910,  -125.333237,   21.6000004,   992.114685
   5911,  -94.1083145,   21.6000004,   995.561951
   5912,  -62.7905197,   21.6000004,   998.026733
   5913,   -31.410759,   21.6000004,   999.506531
   5914,           0.,   21.6000004,        1000.
   5915,    31.410759,   21.6000004,   999.506531
   5916,   62.7905197,   21.6000004,   998.026733
   5917,   94.1083145,   21.6000004,   995.561951
   5918,   125.333237,   21.6000004,   992.114685
   5919,   156.434464,   21.6000004,   987.688354
   5920,   187.381317,   21.6000004,   982.287231
   5921,   218.143234,   21.6000004,   975.916748
   5922,    248.68988,   21.6000004,   968.583191
   5923,   278.991119,   21.6000004,   960.293701
   5924,   309.016998,   21.6000004,   951.056519
   5925,   338.737915,   21.6000004,   940.880798
   5926,   368.124542,   21.6000004,   929.776489
   5927,   397.147888,   21.6000004,   917.754639
   5928,   425.779297,   21.6000004,   904.827026
   5929,   453.990509,   21.6000004,   891.006531
   5930,   481.753662,   21.6000004,   876.306702
   5931,   509.041412,   21.6000004,   860.742004
   5932,   535.826782,   21.6000004,   844.327942
   5933,   562.083374,   21.6000004,   827.080566
   5934,   587.785278,   21.6000004,   809.016968
   5935,   612.907043,   21.6000004,   790.155029
   5936,   637.424011,   21.6000004,   770.513245
   5937,    661.31189,   21.6000004,   750.111084
   5938,   684.547119,   21.6000004,   728.968628
   5939,   707.106812,   21.6000004,   707.106812
   5940,   728.968628,   21.6000004,   684.547119
   5941,   750.111084,   21.6000004,    661.31189
   5942,   770.513245,   21.6000004,   637.424011
   5943,   790.155029,   21.6000004,   612.907043
   5944,   809.016968,   21.6000004,   587.785278
   5945,   827.080566,   21.6000004,   562.083374
   5946,   844.327942,   21.6000004,   535.826782
   5947,   860.742004,   21.6000004,   509.041412
   5948,   876.306702,   21.6000004,   481.753662
   5949,   891.006531,   21.6000004,   453.990509
   5950,   904.827026,   21.6000004,   425.779297
   5951,   917.754639,   21.6000004,   397.147888
   5952,   929.776489,   21.6000004,   368.124542
   5953,   940.880798,   21.6000004,   338.737915
   5954,   951.056519,   21.6000004,   309.016998
   5955,   960.293701,   21.6000004,   278.991119
   5956,   968.583191,   21.6000004,    248.68988
   5957,   975.916748,   21.6000004,   218.143234
   5958,   982.287231,   21.6000004,   187.381317
   5959,   987.688354,   21.6000004,   156.434464
   5960,   992.114685,   21.6000004,   125.333237
   5961,   995.561951,   21.6000004,   94.1083145
   5962,   998.026733,   21.6000004,   62.7905197
   5963,   999.506531,   21.6000004,    31.410759
   5964,  -999.506531,   14.3999996,    31.410759
   5965,  -998.026733,   14.3999996,   62.7905197
   5966,  -995.561951,   14.3999996,   94.1083145
   5967,  -992.114685,   14.3999996,   125.333237
   5968,  -987.688354,   14.3999996,   156.434464
   5969,  -982.287231,   14.3999996,   187.381317
   5970,  -975.916748,   14.3999996,   218.143234
   5971,  -968.583191,   14.3999996,    248.68988
   5972,  -960.293701,   14.3999996,   278.991119
   5973,  -951.056519,   14.3999996,   309.016998
   5974,  -940.880798,   14.3999996,   338.737915
   5975,  -929.776489,   14.3999996,   368.124542
   5976,  -917.754639,   14.3999996,   397.147888
   5977,  -904.827026,   14.3999996,   425.779297
   5978,  -891.006531,   14.3999996,   453.990509
   5979,  -876.306702,   14.3999996,   481.753662
   5980,  -860.742004,   14.3999996,   509.041412
   5981,  -844.327942,   14.3999996,   535.826782
   5982,  -827.080566,   14.3999996,   562.083374
   5983,  -809.016968,   14.3999996,   587.785278
   5984,  -790.155029,   14.3999996,   612.907043
   5985,  -770.513245,   14.3999996,   637.424011
   5986,  -750.111084,   14.3999996,    661.31189
   5987,  -728.968628,   14.3999996,   684.547119
   5988,  -707.106812,   14.3999996,   707.106812
   5989,  -684.547119,   14.3999996,   728.968628
   5990,   -661.31189,   14.3999996,   750.111084
   5991,  -637.424011,   14.3999996,   770.513245
   5992,  -612.907043,   14.3999996,   790.155029
   5993,  -587.785278,   14.3999996,   809.016968
   5994,  -562.083374,   14.3999996,   827.080566
   5995,  -535.826782,   14.3999996,   844.327942
   5996,  -509.041412,   14.3999996,   860.742004
   5997,  -481.753662,   14.3999996,   876.306702
   5998,  -453.990509,   14.3999996,   891.006531
   5999,  -425.779297,   14.3999996,   904.827026
   6000,  -397.147888,   14.3999996,   917.754639
   6001,  -368.124542,   14.3999996,   929.776489
   6002,  -338.737915,   14.3999996,   940.880798
   6003,  -309.016998,   14.3999996,   951.056519
   6004,  -278.991119,   14.3999996,   960.293701
   6005,   -248.68988,   14.3999996,   968.583191
   6006,  -218.143234,   14.3999996,   975.916748
   6007,  -187.381317,   14.3999996,   982.287231
   6008,  -156.434464,   14.3999996,   987.688354
   6009,  -125.333237,   14.3999996,   992.114685
   6010,  -94.1083145,   14.3999996,   995.561951
   6011,  -62.7905197,   14.3999996,   998.026733
   6012,   -31.410759,   14.3999996,   999.506531
   6013,           0.,   14.3999996,        1000.
   6014,    31.410759,   14.3999996,   999.506531
   6015,   62.7905197,   14.3999996,   998.026733
   6016,   94.1083145,   14.3999996,   995.561951
   6017,   125.333237,   14.3999996,   992.114685
   6018,   156.434464,   14.3999996,   987.688354
   6019,   187.381317,   14.3999996,   982.287231
   6020,   218.143234,   14.3999996,   975.916748
   6021,    248.68988,   14.3999996,   968.583191
   6022,   278.991119,   14.3999996,   960.293701
   6023,   309.016998,   14.3999996,   951.056519
   6024,   338.737915,   14.3999996,   940.880798
   6025,   368.124542,   14.3999996,   929.776489
   6026,   397.147888,   14.3999996,   917.754639
   6027,   425.779297,   14.3999996,   904.827026
   6028,   453.990509,   14.3999996,   891.006531
   6029,   481.753662,   14.3999996,   876.306702
   6030,   509.041412,   14.3999996,   860.742004
   6031,   535.826782,   14.3999996,   844.327942
   6032,   562.083374,   14.3999996,   827.080566
   6033,   587.785278,   14.3999996,   809.016968
   6034,   612.907043,   14.3999996,   790.155029
   6035,   637.424011,   14.3999996,   770.513245
   6036,    661.31189,   14.3999996,   750.111084
   6037,   684.547119,   14.3999996,   728.968628
   6038,   707.106812,   14.3999996,   707.106812
   6039,   728.968628,   14.3999996,   684.547119
   6040,   750.111084,   14.3999996,    661.31189
   6041,   770.513245,   14.3999996,   637.424011
   6042,   790.155029,   14.3999996,   612.907043
   6043,   809.016968,   14.3999996,   587.785278
   6044,   827.080566,   14.3999996,   562.083374
   6045,   844.327942,   14.3999996,   535.826782
   6046,   860.742004,   14.3999996,   509.041412
   6047,   876.306702,   14.3999996,   481.753662
   6048,   891.006531,   14.3999996,   453.990509
   6049,   904.827026,   14.3999996,   425.779297
   6050,   917.754639,   14.3999996,   397.147888
   6051,   929.776489,   14.3999996,   368.124542
   6052,   940.880798,   14.3999996,   338.737915
   6053,   951.056519,   14.3999996,   309.016998
   6054,   960.293701,   14.3999996,   278.991119
   6055,   968.583191,   14.3999996,    248.68988
   6056,   975.916748,   14.3999996,   218.143234
   6057,   982.287231,   14.3999996,   187.381317
   6058,   987.688354,   14.3999996,   156.434464
   6059,   992.114685,   14.3999996,   125.333237
   6060,   995.561951,   14.3999996,   94.1083145
   6061,   998.026733,   14.3999996,   62.7905197
   6062,   999.506531,   14.3999996,    31.410759
   6063,  -999.506531,   7.19999981,    31.410759
   6064,  -998.026733,   7.19999981,   62.7905197
   6065,  -995.561951,   7.19999981,   94.1083145
   6066,  -992.114685,   7.19999981,   125.333237
   6067,  -987.688354,   7.19999981,   156.434464
   6068,  -982.287231,   7.19999981,   187.381317
   6069,  -975.916748,   7.19999981,   218.143234
   6070,  -968.583191,   7.19999981,    248.68988
   6071,  -960.293701,   7.19999981,   278.991119
   6072,  -951.056519,   7.19999981,   309.016998
   6073,  -940.880798,   7.19999981,   338.737915
   6074,  -929.776489,   7.19999981,   368.124542
   6075,  -917.754639,   7.19999981,   397.147888
   6076,  -904.827026,   7.19999981,   425.779297
   6077,  -891.006531,   7.19999981,   453.990509
   6078,  -876.306702,   7.19999981,   481.753662
   6079,  -860.742004,   7.19999981,   509.041412
   6080,  -844.327942,   7.19999981,   535.826782
   6081,  -827.080566,   7.19999981,   562.083374
   6082,  -809.016968,   7.19999981,   587.785278
   6083,  -790.155029,   7.19999981,   612.907043
   6084,  -770.513245,   7.19999981,   637.424011
   6085,  -750.111084,   7.19999981,    661.31189
   6086,  -728.968628,   7.19999981,   684.547119
   6087,  -707.106812,   7.19999981,   707.106812
   6088,  -684.547119,   7.19999981,   728.968628
   6089,   -661.31189,   7.19999981,   750.111084
   6090,  -637.424011,   7.19999981,   770.513245
   6091,  -612.907043,   7.19999981,   790.155029
   6092,  -587.785278,   7.19999981,   809.016968
   6093,  -562.083374,   7.19999981,   827.080566
   6094,  -535.826782,   7.19999981,   844.327942
   6095,  -509.041412,   7.19999981,   860.742004
   6096,  -481.753662,   7.19999981,   876.306702
   6097,  -453.990509,   7.19999981,   891.006531
   6098,  -425.779297,   7.19999981,   904.827026
   6099,  -397.147888,   7.19999981,   917.754639
   6100,  -368.124542,   7.19999981,   929.776489
   6101,  -338.737915,   7.19999981,   940.880798
   6102,  -309.016998,   7.19999981,   951.056519
   6103,  -278.991119,   7.19999981,   960.293701
   6104,   -248.68988,   7.19999981,   968.583191
   6105,  -218.143234,   7.19999981,   975.916748
   6106,  -187.381317,   7.19999981,   982.287231
   6107,  -156.434464,   7.19999981,   987.688354
   6108,  -125.333237,   7.19999981,   992.114685
   6109,  -94.1083145,   7.19999981,   995.561951
   6110,  -62.7905197,   7.19999981,   998.026733
   6111,   -31.410759,   7.19999981,   999.506531
   6112,           0.,   7.19999981,        1000.
   6113,    31.410759,   7.19999981,   999.506531
   6114,   62.7905197,   7.19999981,   998.026733
   6115,   94.1083145,   7.19999981,   995.561951
   6116,   125.333237,   7.19999981,   992.114685
   6117,   156.434464,   7.19999981,   987.688354
   6118,   187.381317,   7.19999981,   982.287231
   6119,   218.143234,   7.19999981,   975.916748
   6120,    248.68988,   7.19999981,   968.583191
   6121,   278.991119,   7.19999981,   960.293701
   6122,   309.016998,   7.19999981,   951.056519
   6123,   338.737915,   7.19999981,   940.880798
   6124,   368.124542,   7.19999981,   929.776489
   6125,   397.147888,   7.19999981,   917.754639
   6126,   425.779297,   7.19999981,   904.827026
   6127,   453.990509,   7.19999981,   891.006531
   6128,   481.753662,   7.19999981,   876.306702
   6129,   509.041412,   7.19999981,   860.742004
   6130,   535.826782,   7.19999981,   844.327942
   6131,   562.083374,   7.19999981,   827.080566
   6132,   587.785278,   7.19999981,   809.016968
   6133,   612.907043,   7.19999981,   790.155029
   6134,   637.424011,   7.19999981,   770.513245
   6135,    661.31189,   7.19999981,   750.111084
   6136,   684.547119,   7.19999981,   728.968628
   6137,   707.106812,   7.19999981,   707.106812
   6138,   728.968628,   7.19999981,   684.547119
   6139,   750.111084,   7.19999981,    661.31189
   6140,   770.513245,   7.19999981,   637.424011
   6141,   790.155029,   7.19999981,   612.907043
   6142,   809.016968,   7.19999981,   587.785278
   6143,   827.080566,   7.19999981,   562.083374
   6144,   844.327942,   7.19999981,   535.826782
   6145,   860.742004,   7.19999981,   509.041412
   6146,   876.306702,   7.19999981,   481.753662
   6147,   891.006531,   7.19999981,   453.990509
   6148,   904.827026,   7.19999981,   425.779297
   6149,   917.754639,   7.19999981,   397.147888
   6150,   929.776489,   7.19999981,   368.124542
   6151,   940.880798,   7.19999981,   338.737915
   6152,   951.056519,   7.19999981,   309.016998
   6153,   960.293701,   7.19999981,   278.991119
   6154,   968.583191,   7.19999981,    248.68988
   6155,   975.916748,   7.19999981,   218.143234
   6156,   982.287231,   7.19999981,   187.381317
   6157,   987.688354,   7.19999981,   156.434464
   6158,   992.114685,   7.19999981,   125.333237
   6159,   995.561951,   7.19999981,   94.1083145
   6160,   998.026733,   7.19999981,   62.7905197
   6161,   999.506531,   7.19999981,    31.410759
*Element, type=S4R
   1,    1,    9,  519,  244
   2,    9,   10,  520,  519
   3,   10,   11,  521,  520
   4,   11,   12,  522,  521
   5,   12,   13,  523,  522
   6,   13,   14,  524,  523
   7,   14,   15,  525,  524
   8,   15,   16,  526,  525
   9,   16,   17,  527,  526
  10,   17,   18,  528,  527
  11,   18,   19,  529,  528
  12,   19,   20,  530,  529
  13,   20,   21,  531,  530
  14,   21,   22,  532,  531
  15,   22,   23,  533,  532
  16,   23,   24,  534,  533
  17,   24,   25,  535,  534
  18,   25,   26,  536,  535
  19,   26,   27,  537,  536
  20,   27,   28,  538,  537
  21,   28,   29,  539,  538
  22,   29,   30,  540,  539
  23,   30,   31,  541,  540
  24,   31,   32,  542,  541
  25,   32,   33,  543,  542
  26,   33,   34,  544,  543
  27,   34,   35,  545,  544
  28,   35,   36,  546,  545
  29,   36,   37,  547,  546
  30,   37,   38,  548,  547
  31,   38,   39,  549,  548
  32,   39,   40,  550,  549
  33,   40,   41,  551,  550
  34,   41,   42,  552,  551
  35,   42,   43,  553,  552
  36,   43,   44,  554,  553
  37,   44,   45,  555,  554
  38,   45,   46,  556,  555
  39,   46,   47,  557,  556
  40,   47,   48,  558,  557
  41,   48,   49,  559,  558
  42,   49,   50,  560,  559
  43,   50,   51,  561,  560
  44,   51,   52,  562,  561
  45,   52,   53,  563,  562
  46,   53,   54,  564,  563
  47,   54,   55,  565,  564
  48,   55,   56,  566,  565
  49,   56,   57,  567,  566
  50,   57,   58,  568,  567
  51,   58,   59,  569,  568
  52,   59,   60,  570,  569
  53,   60,   61,  571,  570
  54,   61,   62,  572,  571
  55,   62,   63,  573,  572
  56,   63,   64,  574,  573
  57,   64,   65,  575,  574
  58,   65,   66,  576,  575
  59,   66,   67,  577,  576
  60,   67,   68,  578,  577
  61,   68,   69,  579,  578
  62,   69,   70,  580,  579
  63,   70,   71,  581,  580
  64,   71,   72,  582,  581
  65,   72,   73,  583,  582
  66,   73,   74,  584,  583
  67,   74,   75,  585,  584
  68,   75,   76,  586,  585
  69,   76,   77,  587,  586
  70,   77,   78,  588,  587
  71,   78,   79,  589,  588
  72,   79,   80,  590,  589
  73,   80,   81,  591,  590
  74,   81,   82,  592,  591
  75,   82,   83,  593,  592
  76,   83,   84,  594,  593
  77,   84,   85,  595,  594
  78,   85,   86,  596,  595
  79,   86,   87,  597,  596
  80,   87,   88,  598,  597
  81,   88,   89,  599,  598
  82,   89,   90,  600,  599
  83,   90,   91,  601,  600
  84,   91,   92,  602,  601
  85,   92,   93,  603,  602
  86,   93,   94,  604,  603
  87,   94,   95,  605,  604
  88,   95,   96,  606,  605
  89,   96,   97,  607,  606
  90,   97,   98,  608,  607
  91,   98,   99,  609,  608
  92,   99,  100,  610,  609
  93,  100,  101,  611,  610
  94,  101,  102,  612,  611
  95,  102,  103,  613,  612
  96,  103,  104,  614,  613
  97,  104,  105,  615,  614
  98,  105,  106,  616,  615
  99,  106,  107,  617,  616
 100,  107,    2,  108,  617
 101,  244,  519,  618,  243
 102,  519,  520,  619,  618
 103,  520,  521,  620,  619
 104,  521,  522,  621,  620
 105,  522,  523,  622,  621
 106,  523,  524,  623,  622
 107,  524,  525,  624,  623
 108,  525,  526,  625,  624
 109,  526,  527,  626,  625
 110,  527,  528,  627,  626
 111,  528,  529,  628,  627
 112,  529,  530,  629,  628
 113,  530,  531,  630,  629
 114,  531,  532,  631,  630
 115,  532,  533,  632,  631
 116,  533,  534,  633,  632
 117,  534,  535,  634,  633
 118,  535,  536,  635,  634
 119,  536,  537,  636,  635
 120,  537,  538,  637,  636
 121,  538,  539,  638,  637
 122,  539,  540,  639,  638
 123,  540,  541,  640,  639
 124,  541,  542,  641,  640
 125,  542,  543,  642,  641
 126,  543,  544,  643,  642
 127,  544,  545,  644,  643
 128,  545,  546,  645,  644
 129,  546,  547,  646,  645
 130,  547,  548,  647,  646
 131,  548,  549,  648,  647
 132,  549,  550,  649,  648
 133,  550,  551,  650,  649
 134,  551,  552,  651,  650
 135,  552,  553,  652,  651
 136,  553,  554,  653,  652
 137,  554,  555,  654,  653
 138,  555,  556,  655,  654
 139,  556,  557,  656,  655
 140,  557,  558,  657,  656
 141,  558,  559,  658,  657
 142,  559,  560,  659,  658
 143,  560,  561,  660,  659
 144,  561,  562,  661,  660
 145,  562,  563,  662,  661
 146,  563,  564,  663,  662
 147,  564,  565,  664,  663
 148,  565,  566,  665,  664
 149,  566,  567,  666,  665
 150,  567,  568,  667,  666
 151,  568,  569,  668,  667
 152,  569,  570,  669,  668
 153,  570,  571,  670,  669
 154,  571,  572,  671,  670
 155,  572,  573,  672,  671
 156,  573,  574,  673,  672
 157,  574,  575,  674,  673
 158,  575,  576,  675,  674
 159,  576,  577,  676,  675
 160,  577,  578,  677,  676
 161,  578,  579,  678,  677
 162,  579,  580,  679,  678
 163,  580,  581,  680,  679
 164,  581,  582,  681,  680
 165,  582,  583,  682,  681
 166,  583,  584,  683,  682
 167,  584,  585,  684,  683
 168,  585,  586,  685,  684
 169,  586,  587,  686,  685
 170,  587,  588,  687,  686
 171,  588,  589,  688,  687
 172,  589,  590,  689,  688
 173,  590,  591,  690,  689
 174,  591,  592,  691,  690
 175,  592,  593,  692,  691
 176,  593,  594,  693,  692
 177,  594,  595,  694,  693
 178,  595,  596,  695,  694
 179,  596,  597,  696,  695
 180,  597,  598,  697,  696
 181,  598,  599,  698,  697
 182,  599,  600,  699,  698
 183,  600,  601,  700,  699
 184,  601,  602,  701,  700
 185,  602,  603,  702,  701
 186,  603,  604,  703,  702
 187,  604,  605,  704,  703
 188,  605,  606,  705,  704
 189,  606,  607,  706,  705
 190,  607,  608,  707,  706
 191,  608,  609,  708,  707
 192,  609,  610,  709,  708
 193,  610,  611,  710,  709
 194,  611,  612,  711,  710
 195,  612,  613,  712,  711
 196,  613,  614,  713,  712
 197,  614,  615,  714,  713
 198,  615,  616,  715,  714
 199,  616,  617,  716,  715
 200,  617,  108,  109,  716
 201,  243,  618,  717,  242
 202,  618,  619,  718,  717
 203,  619,  620,  719,  718
 204,  620,  621,  720,  719
 205,  621,  622,  721,  720
 206,  622,  623,  722,  721
 207,  623,  624,  723,  722
 208,  624,  625,  724,  723
 209,  625,  626,  725,  724
 210,  626,  627,  726,  725
 211,  627,  628,  727,  726
 212,  628,  629,  728,  727
 213,  629,  630,  729,  728
 214,  630,  631,  730,  729
 215,  631,  632,  731,  730
 216,  632,  633,  732,  731
 217,  633,  634,  733,  732
 218,  634,  635,  734,  733
 219,  635,  636,  735,  734
 220,  636,  637,  736,  735
 221,  637,  638,  737,  736
 222,  638,  639,  738,  737
 223,  639,  640,  739,  738
 224,  640,  641,  740,  739
 225,  641,  642,  741,  740
 226,  642,  643,  742,  741
 227,  643,  644,  743,  742
 228,  644,  645,  744,  743
 229,  645,  646,  745,  744
 230,  646,  647,  746,  745
 231,  647,  648,  747,  746
 232,  648,  649,  748,  747
 233,  649,  650,  749,  748
 234,  650,  651,  750,  749
 235,  651,  652,  751,  750
 236,  652,  653,  752,  751
 237,  653,  654,  753,  752
 238,  654,  655,  754,  753
 239,  655,  656,  755,  754
 240,  656,  657,  756,  755
 241,  657,  658,  757,  756
 242,  658,  659,  758,  757
 243,  659,  660,  759,  758
 244,  660,  661,  760,  759
 245,  661,  662,  761,  760
 246,  662,  663,  762,  761
 247,  663,  664,  763,  762
 248,  664,  665,  764,  763
 249,  665,  666,  765,  764
 250,  666,  667,  766,  765
 251,  667,  668,  767,  766
 252,  668,  669,  768,  767
 253,  669,  670,  769,  768
 254,  670,  671,  770,  769
 255,  671,  672,  771,  770
 256,  672,  673,  772,  771
 257,  673,  674,  773,  772
 258,  674,  675,  774,  773
 259,  675,  676,  775,  774
 260,  676,  677,  776,  775
 261,  677,  678,  777,  776
 262,  678,  679,  778,  777
 263,  679,  680,  779,  778
 264,  680,  681,  780,  779
 265,  681,  682,  781,  780
 266,  682,  683,  782,  781
 267,  683,  684,  783,  782
 268,  684,  685,  784,  783
 269,  685,  686,  785,  784
 270,  686,  687,  786,  785
 271,  687,  688,  787,  786
 272,  688,  689,  788,  787
 273,  689,  690,  789,  788
 274,  690,  691,  790,  789
 275,  691,  692,  791,  790
 276,  692,  693,  792,  791
 277,  693,  694,  793,  792
 278,  694,  695,  794,  793
 279,  695,  696,  795,  794
 280,  696,  697,  796,  795
 281,  697,  698,  797,  796
 282,  698,  699,  798,  797
 283,  699,  700,  799,  798
 284,  700,  701,  800,  799
 285,  701,  702,  801,  800
 286,  702,  703,  802,  801
 287,  703,  704,  803,  802
 288,  704,  705,  804,  803
 289,  705,  706,  805,  804
 290,  706,  707,  806,  805
 291,  707,  708,  807,  806
 292,  708,  709,  808,  807
 293,  709,  710,  809,  808
 294,  710,  711,  810,  809
 295,  711,  712,  811,  810
 296,  712,  713,  812,  811
 297,  713,  714,  813,  812
 298,  714,  715,  814,  813
 299,  715,  716,  815,  814
 300,  716,  109,  110,  815
 301,  242,  717,  816,  241
 302,  717,  718,  817,  816
 303,  718,  719,  818,  817
 304,  719,  720,  819,  818
 305,  720,  721,  820,  819
 306,  721,  722,  821,  820
 307,  722,  723,  822,  821
 308,  723,  724,  823,  822
 309,  724,  725,  824,  823
 310,  725,  726,  825,  824
 311,  726,  727,  826,  825
 312,  727,  728,  827,  826
 313,  728,  729,  828,  827
 314,  729,  730,  829,  828
 315,  730,  731,  830,  829
 316,  731,  732,  831,  830
 317,  732,  733,  832,  831
 318,  733,  734,  833,  832
 319,  734,  735,  834,  833
 320,  735,  736,  835,  834
 321,  736,  737,  836,  835
 322,  737,  738,  837,  836
 323,  738,  739,  838,  837
 324,  739,  740,  839,  838
 325,  740,  741,  840,  839
 326,  741,  742,  841,  840
 327,  742,  743,  842,  841
 328,  743,  744,  843,  842
 329,  744,  745,  844,  843
 330,  745,  746,  845,  844
 331,  746,  747,  846,  845
 332,  747,  748,  847,  846
 333,  748,  749,  848,  847
 334,  749,  750,  849,  848
 335,  750,  751,  850,  849
 336,  751,  752,  851,  850
 337,  752,  753,  852,  851
 338,  753,  754,  853,  852
 339,  754,  755,  854,  853
 340,  755,  756,  855,  854
 341,  756,  757,  856,  855
 342,  757,  758,  857,  856
 343,  758,  759,  858,  857
 344,  759,  760,  859,  858
 345,  760,  761,  860,  859
 346,  761,  762,  861,  860
 347,  762,  763,  862,  861
 348,  763,  764,  863,  862
 349,  764,  765,  864,  863
 350,  765,  766,  865,  864
 351,  766,  767,  866,  865
 352,  767,  768,  867,  866
 353,  768,  769,  868,  867
 354,  769,  770,  869,  868
 355,  770,  771,  870,  869
 356,  771,  772,  871,  870
 357,  772,  773,  872,  871
 358,  773,  774,  873,  872
 359,  774,  775,  874,  873
 360,  775,  776,  875,  874
 361,  776,  777,  876,  875
 362,  777,  778,  877,  876
 363,  778,  779,  878,  877
 364,  779,  780,  879,  878
 365,  780,  781,  880,  879
 366,  781,  782,  881,  880
 367,  782,  783,  882,  881
 368,  783,  784,  883,  882
 369,  784,  785,  884,  883
 370,  785,  786,  885,  884
 371,  786,  787,  886,  885
 372,  787,  788,  887,  886
 373,  788,  789,  888,  887
 374,  789,  790,  889,  888
 375,  790,  791,  890,  889
 376,  791,  792,  891,  890
 377,  792,  793,  892,  891
 378,  793,  794,  893,  892
 379,  794,  795,  894,  893
 380,  795,  796,  895,  894
 381,  796,  797,  896,  895
 382,  797,  798,  897,  896
 383,  798,  799,  898,  897
 384,  799,  800,  899,  898
 385,  800,  801,  900,  899
 386,  801,  802,  901,  900
 387,  802,  803,  902,  901
 388,  803,  804,  903,  902
 389,  804,  805,  904,  903
 390,  805,  806,  905,  904
 391,  806,  807,  906,  905
 392,  807,  808,  907,  906
 393,  808,  809,  908,  907
 394,  809,  810,  909,  908
 395,  810,  811,  910,  909
 396,  811,  812,  911,  910
 397,  812,  813,  912,  911
 398,  813,  814,  913,  912
 399,  814,  815,  914,  913
 400,  815,  110,  111,  914
 401,  241,  816,  915,  240
 402,  816,  817,  916,  915
 403,  817,  818,  917,  916
 404,  818,  819,  918,  917
 405,  819,  820,  919,  918
 406,  820,  821,  920,  919
 407,  821,  822,  921,  920
 408,  822,  823,  922,  921
 409,  823,  824,  923,  922
 410,  824,  825,  924,  923
 411,  825,  826,  925,  924
 412,  826,  827,  926,  925
 413,  827,  828,  927,  926
 414,  828,  829,  928,  927
 415,  829,  830,  929,  928
 416,  830,  831,  930,  929
 417,  831,  832,  931,  930
 418,  832,  833,  932,  931
 419,  833,  834,  933,  932
 420,  834,  835,  934,  933
 421,  835,  836,  935,  934
 422,  836,  837,  936,  935
 423,  837,  838,  937,  936
 424,  838,  839,  938,  937
 425,  839,  840,  939,  938
 426,  840,  841,  940,  939
 427,  841,  842,  941,  940
 428,  842,  843,  942,  941
 429,  843,  844,  943,  942
 430,  844,  845,  944,  943
 431,  845,  846,  945,  944
 432,  846,  847,  946,  945
 433,  847,  848,  947,  946
 434,  848,  849,  948,  947
 435,  849,  850,  949,  948
 436,  850,  851,  950,  949
 437,  851,  852,  951,  950
 438,  852,  853,  952,  951
 439,  853,  854,  953,  952
 440,  854,  855,  954,  953
 441,  855,  856,  955,  954
 442,  856,  857,  956,  955
 443,  857,  858,  957,  956
 444,  858,  859,  958,  957
 445,  859,  860,  959,  958
 446,  860,  861,  960,  959
 447,  861,  862,  961,  960
 448,  862,  863,  962,  961
 449,  863,  864,  963,  962
 450,  864,  865,  964,  963
 451,  865,  866,  965,  964
 452,  866,  867,  966,  965
 453,  867,  868,  967,  966
 454,  868,  869,  968,  967
 455,  869,  870,  969,  968
 456,  870,  871,  970,  969
 457,  871,  872,  971,  970
 458,  872,  873,  972,  971
 459,  873,  874,  973,  972
 460,  874,  875,  974,  973
 461,  875,  876,  975,  974
 462,  876,  877,  976,  975
 463,  877,  878,  977,  976
 464,  878,  879,  978,  977
 465,  879,  880,  979,  978
 466,  880,  881,  980,  979
 467,  881,  882,  981,  980
 468,  882,  883,  982,  981
 469,  883,  884,  983,  982
 470,  884,  885,  984,  983
 471,  885,  886,  985,  984
 472,  886,  887,  986,  985
 473,  887,  888,  987,  986
 474,  888,  889,  988,  987
 475,  889,  890,  989,  988
 476,  890,  891,  990,  989
 477,  891,  892,  991,  990
 478,  892,  893,  992,  991
 479,  893,  894,  993,  992
 480,  894,  895,  994,  993
 481,  895,  896,  995,  994
 482,  896,  897,  996,  995
 483,  897,  898,  997,  996
 484,  898,  899,  998,  997
 485,  899,  900,  999,  998
 486,  900,  901, 1000,  999
 487,  901,  902, 1001, 1000
 488,  902,  903, 1002, 1001
 489,  903,  904, 1003, 1002
 490,  904,  905, 1004, 1003
 491,  905,  906, 1005, 1004
 492,  906,  907, 1006, 1005
 493,  907,  908, 1007, 1006
 494,  908,  909, 1008, 1007
 495,  909,  910, 1009, 1008
 496,  910,  911, 1010, 1009
 497,  911,  912, 1011, 1010
 498,  912,  913, 1012, 1011
 499,  913,  914, 1013, 1012
 500,  914,  111,  112, 1013
 501,  240,  915, 1014,  239
 502,  915,  916, 1015, 1014
 503,  916,  917, 1016, 1015
 504,  917,  918, 1017, 1016
 505,  918,  919, 1018, 1017
 506,  919,  920, 1019, 1018
 507,  920,  921, 1020, 1019
 508,  921,  922, 1021, 1020
 509,  922,  923, 1022, 1021
 510,  923,  924, 1023, 1022
 511,  924,  925, 1024, 1023
 512,  925,  926, 1025, 1024
 513,  926,  927, 1026, 1025
 514,  927,  928, 1027, 1026
 515,  928,  929, 1028, 1027
 516,  929,  930, 1029, 1028
 517,  930,  931, 1030, 1029
 518,  931,  932, 1031, 1030
 519,  932,  933, 1032, 1031
 520,  933,  934, 1033, 1032
 521,  934,  935, 1034, 1033
 522,  935,  936, 1035, 1034
 523,  936,  937, 1036, 1035
 524,  937,  938, 1037, 1036
 525,  938,  939, 1038, 1037
 526,  939,  940, 1039, 1038
 527,  940,  941, 1040, 1039
 528,  941,  942, 1041, 1040
 529,  942,  943, 1042, 1041
 530,  943,  944, 1043, 1042
 531,  944,  945, 1044, 1043
 532,  945,  946, 1045, 1044
 533,  946,  947, 1046, 1045
 534,  947,  948, 1047, 1046
 535,  948,  949, 1048, 1047
 536,  949,  950, 1049, 1048
 537,  950,  951, 1050, 1049
 538,  951,  952, 1051, 1050
 539,  952,  953, 1052, 1051
 540,  953,  954, 1053, 1052
 541,  954,  955, 1054, 1053
 542,  955,  956, 1055, 1054
 543,  956,  957, 1056, 1055
 544,  957,  958, 1057, 1056
 545,  958,  959, 1058, 1057
 546,  959,  960, 1059, 1058
 547,  960,  961, 1060, 1059
 548,  961,  962, 1061, 1060
 549,  962,  963, 1062, 1061
 550,  963,  964, 1063, 1062
 551,  964,  965, 1064, 1063
 552,  965,  966, 1065, 1064
 553,  966,  967, 1066, 1065
 554,  967,  968, 1067, 1066
 555,  968,  969, 1068, 1067
 556,  969,  970, 1069, 1068
 557,  970,  971, 1070, 1069
 558,  971,  972, 1071, 1070
 559,  972,  973, 1072, 1071
 560,  973,  974, 1073, 1072
 561,  974,  975, 1074, 1073
 562,  975,  976, 1075, 1074
 563,  976,  977, 1076, 1075
 564,  977,  978, 1077, 1076
 565,  978,  979, 1078, 1077
 566,  979,  980, 1079, 1078
 567,  980,  981, 1080, 1079
 568,  981,  982, 1081, 1080
 569,  982,  983, 1082, 1081
 570,  983,  984, 1083, 1082
 571,  984,  985, 1084, 1083
 572,  985,  986, 1085, 1084
 573,  986,  987, 1086, 1085
 574,  987,  988, 1087, 1086
 575,  988,  989, 1088, 1087
 576,  989,  990, 1089, 1088
 577,  990,  991, 1090, 1089
 578,  991,  992, 1091, 1090
 579,  992,  993, 1092, 1091
 580,  993,  994, 1093, 1092
 581,  994,  995, 1094, 1093
 582,  995,  996, 1095, 1094
 583,  996,  997, 1096, 1095
 584,  997,  998, 1097, 1096
 585,  998,  999, 1098, 1097
 586,  999, 1000, 1099, 1098
 587, 1000, 1001, 1100, 1099
 588, 1001, 1002, 1101, 1100
 589, 1002, 1003, 1102, 1101
 590, 1003, 1004, 1103, 1102
 591, 1004, 1005, 1104, 1103
 592, 1005, 1006, 1105, 1104
 593, 1006, 1007, 1106, 1105
 594, 1007, 1008, 1107, 1106
 595, 1008, 1009, 1108, 1107
 596, 1009, 1010, 1109, 1108
 597, 1010, 1011, 1110, 1109
 598, 1011, 1012, 1111, 1110
 599, 1012, 1013, 1112, 1111
 600, 1013,  112,  113, 1112
 601,  239, 1014, 1113,  238
 602, 1014, 1015, 1114, 1113
 603, 1015, 1016, 1115, 1114
 604, 1016, 1017, 1116, 1115
 605, 1017, 1018, 1117, 1116
 606, 1018, 1019, 1118, 1117
 607, 1019, 1020, 1119, 1118
 608, 1020, 1021, 1120, 1119
 609, 1021, 1022, 1121, 1120
 610, 1022, 1023, 1122, 1121
 611, 1023, 1024, 1123, 1122
 612, 1024, 1025, 1124, 1123
 613, 1025, 1026, 1125, 1124
 614, 1026, 1027, 1126, 1125
 615, 1027, 1028, 1127, 1126
 616, 1028, 1029, 1128, 1127
 617, 1029, 1030, 1129, 1128
 618, 1030, 1031, 1130, 1129
 619, 1031, 1032, 1131, 1130
 620, 1032, 1033, 1132, 1131
 621, 1033, 1034, 1133, 1132
 622, 1034, 1035, 1134, 1133
 623, 1035, 1036, 1135, 1134
 624, 1036, 1037, 1136, 1135
 625, 1037, 1038, 1137, 1136
 626, 1038, 1039, 1138, 1137
 627, 1039, 1040, 1139, 1138
 628, 1040, 1041, 1140, 1139
 629, 1041, 1042, 1141, 1140
 630, 1042, 1043, 1142, 1141
 631, 1043, 1044, 1143, 1142
 632, 1044, 1045, 1144, 1143
 633, 1045, 1046, 1145, 1144
 634, 1046, 1047, 1146, 1145
 635, 1047, 1048, 1147, 1146
 636, 1048, 1049, 1148, 1147
 637, 1049, 1050, 1149, 1148
 638, 1050, 1051, 1150, 1149
 639, 1051, 1052, 1151, 1150
 640, 1052, 1053, 1152, 1151
 641, 1053, 1054, 1153, 1152
 642, 1054, 1055, 1154, 1153
 643, 1055, 1056, 1155, 1154
 644, 1056, 1057, 1156, 1155
 645, 1057, 1058, 1157, 1156
 646, 1058, 1059, 1158, 1157
 647, 1059, 1060, 1159, 1158
 648, 1060, 1061, 1160, 1159
 649, 1061, 1062, 1161, 1160
 650, 1062, 1063, 1162, 1161
 651, 1063, 1064, 1163, 1162
 652, 1064, 1065, 1164, 1163
 653, 1065, 1066, 1165, 1164
 654, 1066, 1067, 1166, 1165
 655, 1067, 1068, 1167, 1166
 656, 1068, 1069, 1168, 1167
 657, 1069, 1070, 1169, 1168
 658, 1070, 1071, 1170, 1169
 659, 1071, 1072, 1171, 1170
 660, 1072, 1073, 1172, 1171
 661, 1073, 1074, 1173, 1172
 662, 1074, 1075, 1174, 1173
 663, 1075, 1076, 1175, 1174
 664, 1076, 1077, 1176, 1175
 665, 1077, 1078, 1177, 1176
 666, 1078, 1079, 1178, 1177
 667, 1079, 1080, 1179, 1178
 668, 1080, 1081, 1180, 1179
 669, 1081, 1082, 1181, 1180
 670, 1082, 1083, 1182, 1181
 671, 1083, 1084, 1183, 1182
 672, 1084, 1085, 1184, 1183
 673, 1085, 1086, 1185, 1184
 674, 1086, 1087, 1186, 1185
 675, 1087, 1088, 1187, 1186
 676, 1088, 1089, 1188, 1187
 677, 1089, 1090, 1189, 1188
 678, 1090, 1091, 1190, 1189
 679, 1091, 1092, 1191, 1190
 680, 1092, 1093, 1192, 1191
 681, 1093, 1094, 1193, 1192
 682, 1094, 1095, 1194, 1193
 683, 1095, 1096, 1195, 1194
 684, 1096, 1097, 1196, 1195
 685, 1097, 1098, 1197, 1196
 686, 1098, 1099, 1198, 1197
 687, 1099, 1100, 1199, 1198
 688, 1100, 1101, 1200, 1199
 689, 1101, 1102, 1201, 1200
 690, 1102, 1103, 1202, 1201
 691, 1103, 1104, 1203, 1202
 692, 1104, 1105, 1204, 1203
 693, 1105, 1106, 1205, 1204
 694, 1106, 1107, 1206, 1205
 695, 1107, 1108, 1207, 1206
 696, 1108, 1109, 1208, 1207
 697, 1109, 1110, 1209, 1208
 698, 1110, 1111, 1210, 1209
 699, 1111, 1112, 1211, 1210
 700, 1112,  113,  114, 1211
 701,  238, 1113, 1212,  237
 702, 1113, 1114, 1213, 1212
 703, 1114, 1115, 1214, 1213
 704, 1115, 1116, 1215, 1214
 705, 1116, 1117, 1216, 1215
 706, 1117, 1118, 1217, 1216
 707, 1118, 1119, 1218, 1217
 708, 1119, 1120, 1219, 1218
 709, 1120, 1121, 1220, 1219
 710, 1121, 1122, 1221, 1220
 711, 1122, 1123, 1222, 1221
 712, 1123, 1124, 1223, 1222
 713, 1124, 1125, 1224, 1223
 714, 1125, 1126, 1225, 1224
 715, 1126, 1127, 1226, 1225
 716, 1127, 1128, 1227, 1226
 717, 1128, 1129, 1228, 1227
 718, 1129, 1130, 1229, 1228
 719, 1130, 1131, 1230, 1229
 720, 1131, 1132, 1231, 1230
 721, 1132, 1133, 1232, 1231
 722, 1133, 1134, 1233, 1232
 723, 1134, 1135, 1234, 1233
 724, 1135, 1136, 1235, 1234
 725, 1136, 1137, 1236, 1235
 726, 1137, 1138, 1237, 1236
 727, 1138, 1139, 1238, 1237
 728, 1139, 1140, 1239, 1238
 729, 1140, 1141, 1240, 1239
 730, 1141, 1142, 1241, 1240
 731, 1142, 1143, 1242, 1241
 732, 1143, 1144, 1243, 1242
 733, 1144, 1145, 1244, 1243
 734, 1145, 1146, 1245, 1244
 735, 1146, 1147, 1246, 1245
 736, 1147, 1148, 1247, 1246
 737, 1148, 1149, 1248, 1247
 738, 1149, 1150, 1249, 1248
 739, 1150, 1151, 1250, 1249
 740, 1151, 1152, 1251, 1250
 741, 1152, 1153, 1252, 1251
 742, 1153, 1154, 1253, 1252
 743, 1154, 1155, 1254, 1253
 744, 1155, 1156, 1255, 1254
 745, 1156, 1157, 1256, 1255
 746, 1157, 1158, 1257, 1256
 747, 1158, 1159, 1258, 1257
 748, 1159, 1160, 1259, 1258
 749, 1160, 1161, 1260, 1259
 750, 1161, 1162, 1261, 1260
 751, 1162, 1163, 1262, 1261
 752, 1163, 1164, 1263, 1262
 753, 1164, 1165, 1264, 1263
 754, 1165, 1166, 1265, 1264
 755, 1166, 1167, 1266, 1265
 756, 1167, 1168, 1267, 1266
 757, 1168, 1169, 1268, 1267
 758, 1169, 1170, 1269, 1268
 759, 1170, 1171, 1270, 1269
 760, 1171, 1172, 1271, 1270
 761, 1172, 1173, 1272, 1271
 762, 1173, 1174, 1273, 1272
 763, 1174, 1175, 1274, 1273
 764, 1175, 1176, 1275, 1274
 765, 1176, 1177, 1276, 1275
 766, 1177, 1178, 1277, 1276
 767, 1178, 1179, 1278, 1277
 768, 1179, 1180, 1279, 1278
 769, 1180, 1181, 1280, 1279
 770, 1181, 1182, 1281, 1280
 771, 1182, 1183, 1282, 1281
 772, 1183, 1184, 1283, 1282
 773, 1184, 1185, 1284, 1283
 774, 1185, 1186, 1285, 1284
 775, 1186, 1187, 1286, 1285
 776, 1187, 1188, 1287, 1286
 777, 1188, 1189, 1288, 1287
 778, 1189, 1190, 1289, 1288
 779, 1190, 1191, 1290, 1289
 780, 1191, 1192, 1291, 1290
 781, 1192, 1193, 1292, 1291
 782, 1193, 1194, 1293, 1292
 783, 1194, 1195, 1294, 1293
 784, 1195, 1196, 1295, 1294
 785, 1196, 1197, 1296, 1295
 786, 1197, 1198, 1297, 1296
 787, 1198, 1199, 1298, 1297
 788, 1199, 1200, 1299, 1298
 789, 1200, 1201, 1300, 1299
 790, 1201, 1202, 1301, 1300
 791, 1202, 1203, 1302, 1301
 792, 1203, 1204, 1303, 1302
 793, 1204, 1205, 1304, 1303
 794, 1205, 1206, 1305, 1304
 795, 1206, 1207, 1306, 1305
 796, 1207, 1208, 1307, 1306
 797, 1208, 1209, 1308, 1307
 798, 1209, 1210, 1309, 1308
 799, 1210, 1211, 1310, 1309
 800, 1211,  114,  115, 1310
 801,  237, 1212, 1311,  236
 802, 1212, 1213, 1312, 1311
 803, 1213, 1214, 1313, 1312
 804, 1214, 1215, 1314, 1313
 805, 1215, 1216, 1315, 1314
 806, 1216, 1217, 1316, 1315
 807, 1217, 1218, 1317, 1316
 808, 1218, 1219, 1318, 1317
 809, 1219, 1220, 1319, 1318
 810, 1220, 1221, 1320, 1319
 811, 1221, 1222, 1321, 1320
 812, 1222, 1223, 1322, 1321
 813, 1223, 1224, 1323, 1322
 814, 1224, 1225, 1324, 1323
 815, 1225, 1226, 1325, 1324
 816, 1226, 1227, 1326, 1325
 817, 1227, 1228, 1327, 1326
 818, 1228, 1229, 1328, 1327
 819, 1229, 1230, 1329, 1328
 820, 1230, 1231, 1330, 1329
 821, 1231, 1232, 1331, 1330
 822, 1232, 1233, 1332, 1331
 823, 1233, 1234, 1333, 1332
 824, 1234, 1235, 1334, 1333
 825, 1235, 1236, 1335, 1334
 826, 1236, 1237, 1336, 1335
 827, 1237, 1238, 1337, 1336
 828, 1238, 1239, 1338, 1337
 829, 1239, 1240, 1339, 1338
 830, 1240, 1241, 1340, 1339
 831, 1241, 1242, 1341, 1340
 832, 1242, 1243, 1342, 1341
 833, 1243, 1244, 1343, 1342
 834, 1244, 1245, 1344, 1343
 835, 1245, 1246, 1345, 1344
 836, 1246, 1247, 1346, 1345
 837, 1247, 1248, 1347, 1346
 838, 1248, 1249, 1348, 1347
 839, 1249, 1250, 1349, 1348
 840, 1250, 1251, 1350, 1349
 841, 1251, 1252, 1351, 1350
 842, 1252, 1253, 1352, 1351
 843, 1253, 1254, 1353, 1352
 844, 1254, 1255, 1354, 1353
 845, 1255, 1256, 1355, 1354
 846, 1256, 1257, 1356, 1355
 847, 1257, 1258, 1357, 1356
 848, 1258, 1259, 1358, 1357
 849, 1259, 1260, 1359, 1358
 850, 1260, 1261, 1360, 1359
 851, 1261, 1262, 1361, 1360
 852, 1262, 1263, 1362, 1361
 853, 1263, 1264, 1363, 1362
 854, 1264, 1265, 1364, 1363
 855, 1265, 1266, 1365, 1364
 856, 1266, 1267, 1366, 1365
 857, 1267, 1268, 1367, 1366
 858, 1268, 1269, 1368, 1367
 859, 1269, 1270, 1369, 1368
 860, 1270, 1271, 1370, 1369
 861, 1271, 1272, 1371, 1370
 862, 1272, 1273, 1372, 1371
 863, 1273, 1274, 1373, 1372
 864, 1274, 1275, 1374, 1373
 865, 1275, 1276, 1375, 1374
 866, 1276, 1277, 1376, 1375
 867, 1277, 1278, 1377, 1376
 868, 1278, 1279, 1378, 1377
 869, 1279, 1280, 1379, 1378
 870, 1280, 1281, 1380, 1379
 871, 1281, 1282, 1381, 1380
 872, 1282, 1283, 1382, 1381
 873, 1283, 1284, 1383, 1382
 874, 1284, 1285, 1384, 1383
 875, 1285, 1286, 1385, 1384
 876, 1286, 1287, 1386, 1385
 877, 1287, 1288, 1387, 1386
 878, 1288, 1289, 1388, 1387
 879, 1289, 1290, 1389, 1388
 880, 1290, 1291, 1390, 1389
 881, 1291, 1292, 1391, 1390
 882, 1292, 1293, 1392, 1391
 883, 1293, 1294, 1393, 1392
 884, 1294, 1295, 1394, 1393
 885, 1295, 1296, 1395, 1394
 886, 1296, 1297, 1396, 1395
 887, 1297, 1298, 1397, 1396
 888, 1298, 1299, 1398, 1397
 889, 1299, 1300, 1399, 1398
 890, 1300, 1301, 1400, 1399
 891, 1301, 1302, 1401, 1400
 892, 1302, 1303, 1402, 1401
 893, 1303, 1304, 1403, 1402
 894, 1304, 1305, 1404, 1403
 895, 1305, 1306, 1405, 1404
 896, 1306, 1307, 1406, 1405
 897, 1307, 1308, 1407, 1406
 898, 1308, 1309, 1408, 1407
 899, 1309, 1310, 1409, 1408
 900, 1310,  115,  116, 1409
 901,  236, 1311, 1410,  235
 902, 1311, 1312, 1411, 1410
 903, 1312, 1313, 1412, 1411
 904, 1313, 1314, 1413, 1412
 905, 1314, 1315, 1414, 1413
 906, 1315, 1316, 1415, 1414
 907, 1316, 1317, 1416, 1415
 908, 1317, 1318, 1417, 1416
 909, 1318, 1319, 1418, 1417
 910, 1319, 1320, 1419, 1418
 911, 1320, 1321, 1420, 1419
 912, 1321, 1322, 1421, 1420
 913, 1322, 1323, 1422, 1421
 914, 1323, 1324, 1423, 1422
 915, 1324, 1325, 1424, 1423
 916, 1325, 1326, 1425, 1424
 917, 1326, 1327, 1426, 1425
 918, 1327, 1328, 1427, 1426
 919, 1328, 1329, 1428, 1427
 920, 1329, 1330, 1429, 1428
 921, 1330, 1331, 1430, 1429
 922, 1331, 1332, 1431, 1430
 923, 1332, 1333, 1432, 1431
 924, 1333, 1334, 1433, 1432
 925, 1334, 1335, 1434, 1433
 926, 1335, 1336, 1435, 1434
 927, 1336, 1337, 1436, 1435
 928, 1337, 1338, 1437, 1436
 929, 1338, 1339, 1438, 1437
 930, 1339, 1340, 1439, 1438
 931, 1340, 1341, 1440, 1439
 932, 1341, 1342, 1441, 1440
 933, 1342, 1343, 1442, 1441
 934, 1343, 1344, 1443, 1442
 935, 1344, 1345, 1444, 1443
 936, 1345, 1346, 1445, 1444
 937, 1346, 1347, 1446, 1445
 938, 1347, 1348, 1447, 1446
 939, 1348, 1349, 1448, 1447
 940, 1349, 1350, 1449, 1448
 941, 1350, 1351, 1450, 1449
 942, 1351, 1352, 1451, 1450
 943, 1352, 1353, 1452, 1451
 944, 1353, 1354, 1453, 1452
 945, 1354, 1355, 1454, 1453
 946, 1355, 1356, 1455, 1454
 947, 1356, 1357, 1456, 1455
 948, 1357, 1358, 1457, 1456
 949, 1358, 1359, 1458, 1457
 950, 1359, 1360, 1459, 1458
 951, 1360, 1361, 1460, 1459
 952, 1361, 1362, 1461, 1460
 953, 1362, 1363, 1462, 1461
 954, 1363, 1364, 1463, 1462
 955, 1364, 1365, 1464, 1463
 956, 1365, 1366, 1465, 1464
 957, 1366, 1367, 1466, 1465
 958, 1367, 1368, 1467, 1466
 959, 1368, 1369, 1468, 1467
 960, 1369, 1370, 1469, 1468
 961, 1370, 1371, 1470, 1469
 962, 1371, 1372, 1471, 1470
 963, 1372, 1373, 1472, 1471
 964, 1373, 1374, 1473, 1472
 965, 1374, 1375, 1474, 1473
 966, 1375, 1376, 1475, 1474
 967, 1376, 1377, 1476, 1475
 968, 1377, 1378, 1477, 1476
 969, 1378, 1379, 1478, 1477
 970, 1379, 1380, 1479, 1478
 971, 1380, 1381, 1480, 1479
 972, 1381, 1382, 1481, 1480
 973, 1382, 1383, 1482, 1481
 974, 1383, 1384, 1483, 1482
 975, 1384, 1385, 1484, 1483
 976, 1385, 1386, 1485, 1484
 977, 1386, 1387, 1486, 1485
 978, 1387, 1388, 1487, 1486
 979, 1388, 1389, 1488, 1487
 980, 1389, 1390, 1489, 1488
 981, 1390, 1391, 1490, 1489
 982, 1391, 1392, 1491, 1490
 983, 1392, 1393, 1492, 1491
 984, 1393, 1394, 1493, 1492
 985, 1394, 1395, 1494, 1493
 986, 1395, 1396, 1495, 1494
 987, 1396, 1397, 1496, 1495
 988, 1397, 1398, 1497, 1496
 989, 1398, 1399, 1498, 1497
 990, 1399, 1400, 1499, 1498
 991, 1400, 1401, 1500, 1499
 992, 1401, 1402, 1501, 1500
 993, 1402, 1403, 1502, 1501
 994, 1403, 1404, 1503, 1502
 995, 1404, 1405, 1504, 1503
 996, 1405, 1406, 1505, 1504
 997, 1406, 1407, 1506, 1505
 998, 1407, 1408, 1507, 1506
 999, 1408, 1409, 1508, 1507
1000, 1409,  116,  117, 1508
1001,  235, 1410, 1509,  234
1002, 1410, 1411, 1510, 1509
1003, 1411, 1412, 1511, 1510
1004, 1412, 1413, 1512, 1511
1005, 1413, 1414, 1513, 1512
1006, 1414, 1415, 1514, 1513
1007, 1415, 1416, 1515, 1514
1008, 1416, 1417, 1516, 1515
1009, 1417, 1418, 1517, 1516
1010, 1418, 1419, 1518, 1517
1011, 1419, 1420, 1519, 1518
1012, 1420, 1421, 1520, 1519
1013, 1421, 1422, 1521, 1520
1014, 1422, 1423, 1522, 1521
1015, 1423, 1424, 1523, 1522
1016, 1424, 1425, 1524, 1523
1017, 1425, 1426, 1525, 1524
1018, 1426, 1427, 1526, 1525
1019, 1427, 1428, 1527, 1526
1020, 1428, 1429, 1528, 1527
1021, 1429, 1430, 1529, 1528
1022, 1430, 1431, 1530, 1529
1023, 1431, 1432, 1531, 1530
1024, 1432, 1433, 1532, 1531
1025, 1433, 1434, 1533, 1532
1026, 1434, 1435, 1534, 1533
1027, 1435, 1436, 1535, 1534
1028, 1436, 1437, 1536, 1535
1029, 1437, 1438, 1537, 1536
1030, 1438, 1439, 1538, 1537
1031, 1439, 1440, 1539, 1538
1032, 1440, 1441, 1540, 1539
1033, 1441, 1442, 1541, 1540
1034, 1442, 1443, 1542, 1541
1035, 1443, 1444, 1543, 1542
1036, 1444, 1445, 1544, 1543
1037, 1445, 1446, 1545, 1544
1038, 1446, 1447, 1546, 1545
1039, 1447, 1448, 1547, 1546
1040, 1448, 1449, 1548, 1547
1041, 1449, 1450, 1549, 1548
1042, 1450, 1451, 1550, 1549
1043, 1451, 1452, 1551, 1550
1044, 1452, 1453, 1552, 1551
1045, 1453, 1454, 1553, 1552
1046, 1454, 1455, 1554, 1553
1047, 1455, 1456, 1555, 1554
1048, 1456, 1457, 1556, 1555
1049, 1457, 1458, 1557, 1556
1050, 1458, 1459, 1558, 1557
1051, 1459, 1460, 1559, 1558
1052, 1460, 1461, 1560, 1559
1053, 1461, 1462, 1561, 1560
1054, 1462, 1463, 1562, 1561
1055, 1463, 1464, 1563, 1562
1056, 1464, 1465, 1564, 1563
1057, 1465, 1466, 1565, 1564
1058, 1466, 1467, 1566, 1565
1059, 1467, 1468, 1567, 1566
1060, 1468, 1469, 1568, 1567
1061, 1469, 1470, 1569, 1568
1062, 1470, 1471, 1570, 1569
1063, 1471, 1472, 1571, 1570
1064, 1472, 1473, 1572, 1571
1065, 1473, 1474, 1573, 1572
1066, 1474, 1475, 1574, 1573
1067, 1475, 1476, 1575, 1574
1068, 1476, 1477, 1576, 1575
1069, 1477, 1478, 1577, 1576
1070, 1478, 1479, 1578, 1577
1071, 1479, 1480, 1579, 1578
1072, 1480, 1481, 1580, 1579
1073, 1481, 1482, 1581, 1580
1074, 1482, 1483, 1582, 1581
1075, 1483, 1484, 1583, 1582
1076, 1484, 1485, 1584, 1583
1077, 1485, 1486, 1585, 1584
1078, 1486, 1487, 1586, 1585
1079, 1487, 1488, 1587, 1586
1080, 1488, 1489, 1588, 1587
1081, 1489, 1490, 1589, 1588
1082, 1490, 1491, 1590, 1589
1083, 1491, 1492, 1591, 1590
1084, 1492, 1493, 1592, 1591
1085, 1493, 1494, 1593, 1592
1086, 1494, 1495, 1594, 1593
1087, 1495, 1496, 1595, 1594
1088, 1496, 1497, 1596, 1595
1089, 1497, 1498, 1597, 1596
1090, 1498, 1499, 1598, 1597
1091, 1499, 1500, 1599, 1598
1092, 1500, 1501, 1600, 1599
1093, 1501, 1502, 1601, 1600
1094, 1502, 1503, 1602, 1601
1095, 1503, 1504, 1603, 1602
1096, 1504, 1505, 1604, 1603
1097, 1505, 1506, 1605, 1604
1098, 1506, 1507, 1606, 1605
1099, 1507, 1508, 1607, 1606
1100, 1508,  117,  118, 1607
1101,  234, 1509, 1608,  233
1102, 1509, 1510, 1609, 1608
1103, 1510, 1511, 1610, 1609
1104, 1511, 1512, 1611, 1610
1105, 1512, 1513, 1612, 1611
1106, 1513, 1514, 1613, 1612
1107, 1514, 1515, 1614, 1613
1108, 1515, 1516, 1615, 1614
1109, 1516, 1517, 1616, 1615
1110, 1517, 1518, 1617, 1616
1111, 1518, 1519, 1618, 1617
1112, 1519, 1520, 1619, 1618
1113, 1520, 1521, 1620, 1619
1114, 1521, 1522, 1621, 1620
1115, 1522, 1523, 1622, 1621
1116, 1523, 1524, 1623, 1622
1117, 1524, 1525, 1624, 1623
1118, 1525, 1526, 1625, 1624
1119, 1526, 1527, 1626, 1625
1120, 1527, 1528, 1627, 1626
1121, 1528, 1529, 1628, 1627
1122, 1529, 1530, 1629, 1628
1123, 1530, 1531, 1630, 1629
1124, 1531, 1532, 1631, 1630
1125, 1532, 1533, 1632, 1631
1126, 1533, 1534, 1633, 1632
1127, 1534, 1535, 1634, 1633
1128, 1535, 1536, 1635, 1634
1129, 1536, 1537, 1636, 1635
1130, 1537, 1538, 1637, 1636
1131, 1538, 1539, 1638, 1637
1132, 1539, 1540, 1639, 1638
1133, 1540, 1541, 1640, 1639
1134, 1541, 1542, 1641, 1640
1135, 1542, 1543, 1642, 1641
1136, 1543, 1544, 1643, 1642
1137, 1544, 1545, 1644, 1643
1138, 1545, 1546, 1645, 1644
1139, 1546, 1547, 1646, 1645
1140, 1547, 1548, 1647, 1646
1141, 1548, 1549, 1648, 1647
1142, 1549, 1550, 1649, 1648
1143, 1550, 1551, 1650, 1649
1144, 1551, 1552, 1651, 1650
1145, 1552, 1553, 1652, 1651
1146, 1553, 1554, 1653, 1652
1147, 1554, 1555, 1654, 1653
1148, 1555, 1556, 1655, 1654
1149, 1556, 1557, 1656, 1655
1150, 1557, 1558, 1657, 1656
1151, 1558, 1559, 1658, 1657
1152, 1559, 1560, 1659, 1658
1153, 1560, 1561, 1660, 1659
1154, 1561, 1562, 1661, 1660
1155, 1562, 1563, 1662, 1661
1156, 1563, 1564, 1663, 1662
1157, 1564, 1565, 1664, 1663
1158, 1565, 1566, 1665, 1664
1159, 1566, 1567, 1666, 1665
1160, 1567, 1568, 1667, 1666
1161, 1568, 1569, 1668, 1667
1162, 1569, 1570, 1669, 1668
1163, 1570, 1571, 1670, 1669
1164, 1571, 1572, 1671, 1670
1165, 1572, 1573, 1672, 1671
1166, 1573, 1574, 1673, 1672
1167, 1574, 1575, 1674, 1673
1168, 1575, 1576, 1675, 1674
1169, 1576, 1577, 1676, 1675
1170, 1577, 1578, 1677, 1676
1171, 1578, 1579, 1678, 1677
1172, 1579, 1580, 1679, 1678
1173, 1580, 1581, 1680, 1679
1174, 1581, 1582, 1681, 1680
1175, 1582, 1583, 1682, 1681
1176, 1583, 1584, 1683, 1682
1177, 1584, 1585, 1684, 1683
1178, 1585, 1586, 1685, 1684
1179, 1586, 1587, 1686, 1685
1180, 1587, 1588, 1687, 1686
1181, 1588, 1589, 1688, 1687
1182, 1589, 1590, 1689, 1688
1183, 1590, 1591, 1690, 1689
1184, 1591, 1592, 1691, 1690
1185, 1592, 1593, 1692, 1691
1186, 1593, 1594, 1693, 1692
1187, 1594, 1595, 1694, 1693
1188, 1595, 1596, 1695, 1694
1189, 1596, 1597, 1696, 1695
1190, 1597, 1598, 1697, 1696
1191, 1598, 1599, 1698, 1697
1192, 1599, 1600, 1699, 1698
1193, 1600, 1601, 1700, 1699
1194, 1601, 1602, 1701, 1700
1195, 1602, 1603, 1702, 1701
1196, 1603, 1604, 1703, 1702
1197, 1604, 1605, 1704, 1703
1198, 1605, 1606, 1705, 1704
1199, 1606, 1607, 1706, 1705
1200, 1607,  118,  119, 1706
1201,  233, 1608, 1707,  232
1202, 1608, 1609, 1708, 1707
1203, 1609, 1610, 1709, 1708
1204, 1610, 1611, 1710, 1709
1205, 1611, 1612, 1711, 1710
1206, 1612, 1613, 1712, 1711
1207, 1613, 1614, 1713, 1712
1208, 1614, 1615, 1714, 1713
1209, 1615, 1616, 1715, 1714
1210, 1616, 1617, 1716, 1715
1211, 1617, 1618, 1717, 1716
1212, 1618, 1619, 1718, 1717
1213, 1619, 1620, 1719, 1718
1214, 1620, 1621, 1720, 1719
1215, 1621, 1622, 1721, 1720
1216, 1622, 1623, 1722, 1721
1217, 1623, 1624, 1723, 1722
1218, 1624, 1625, 1724, 1723
1219, 1625, 1626, 1725, 1724
1220, 1626, 1627, 1726, 1725
1221, 1627, 1628, 1727, 1726
1222, 1628, 1629, 1728, 1727
1223, 1629, 1630, 1729, 1728
1224, 1630, 1631, 1730, 1729
1225, 1631, 1632, 1731, 1730
1226, 1632, 1633, 1732, 1731
1227, 1633, 1634, 1733, 1732
1228, 1634, 1635, 1734, 1733
1229, 1635, 1636, 1735, 1734
1230, 1636, 1637, 1736, 1735
1231, 1637, 1638, 1737, 1736
1232, 1638, 1639, 1738, 1737
1233, 1639, 1640, 1739, 1738
1234, 1640, 1641, 1740, 1739
1235, 1641, 1642, 1741, 1740
1236, 1642, 1643, 1742, 1741
1237, 1643, 1644, 1743, 1742
1238, 1644, 1645, 1744, 1743
1239, 1645, 1646, 1745, 1744
1240, 1646, 1647, 1746, 1745
1241, 1647, 1648, 1747, 1746
1242, 1648, 1649, 1748, 1747
1243, 1649, 1650, 1749, 1748
1244, 1650, 1651, 1750, 1749
1245, 1651, 1652, 1751, 1750
1246, 1652, 1653, 1752, 1751
1247, 1653, 1654, 1753, 1752
1248, 1654, 1655, 1754, 1753
1249, 1655, 1656, 1755, 1754
1250, 1656, 1657, 1756, 1755
1251, 1657, 1658, 1757, 1756
1252, 1658, 1659, 1758, 1757
1253, 1659, 1660, 1759, 1758
1254, 1660, 1661, 1760, 1759
1255, 1661, 1662, 1761, 1760
1256, 1662, 1663, 1762, 1761
1257, 1663, 1664, 1763, 1762
1258, 1664, 1665, 1764, 1763
1259, 1665, 1666, 1765, 1764
1260, 1666, 1667, 1766, 1765
1261, 1667, 1668, 1767, 1766
1262, 1668, 1669, 1768, 1767
1263, 1669, 1670, 1769, 1768
1264, 1670, 1671, 1770, 1769
1265, 1671, 1672, 1771, 1770
1266, 1672, 1673, 1772, 1771
1267, 1673, 1674, 1773, 1772
1268, 1674, 1675, 1774, 1773
1269, 1675, 1676, 1775, 1774
1270, 1676, 1677, 1776, 1775
1271, 1677, 1678, 1777, 1776
1272, 1678, 1679, 1778, 1777
1273, 1679, 1680, 1779, 1778
1274, 1680, 1681, 1780, 1779
1275, 1681, 1682, 1781, 1780
1276, 1682, 1683, 1782, 1781
1277, 1683, 1684, 1783, 1782
1278, 1684, 1685, 1784, 1783
1279, 1685, 1686, 1785, 1784
1280, 1686, 1687, 1786, 1785
1281, 1687, 1688, 1787, 1786
1282, 1688, 1689, 1788, 1787
1283, 1689, 1690, 1789, 1788
1284, 1690, 1691, 1790, 1789
1285, 1691, 1692, 1791, 1790
1286, 1692, 1693, 1792, 1791
1287, 1693, 1694, 1793, 1792
1288, 1694, 1695, 1794, 1793
1289, 1695, 1696, 1795, 1794
1290, 1696, 1697, 1796, 1795
1291, 1697, 1698, 1797, 1796
1292, 1698, 1699, 1798, 1797
1293, 1699, 1700, 1799, 1798
1294, 1700, 1701, 1800, 1799
1295, 1701, 1702, 1801, 1800
1296, 1702, 1703, 1802, 1801
1297, 1703, 1704, 1803, 1802
1298, 1704, 1705, 1804, 1803
1299, 1705, 1706, 1805, 1804
1300, 1706,  119,  120, 1805
1301,  232, 1707, 1806,  231
1302, 1707, 1708, 1807, 1806
1303, 1708, 1709, 1808, 1807
1304, 1709, 1710, 1809, 1808
1305, 1710, 1711, 1810, 1809
1306, 1711, 1712, 1811, 1810
1307, 1712, 1713, 1812, 1811
1308, 1713, 1714, 1813, 1812
1309, 1714, 1715, 1814, 1813
1310, 1715, 1716, 1815, 1814
1311, 1716, 1717, 1816, 1815
1312, 1717, 1718, 1817, 1816
1313, 1718, 1719, 1818, 1817
1314, 1719, 1720, 1819, 1818
1315, 1720, 1721, 1820, 1819
1316, 1721, 1722, 1821, 1820
1317, 1722, 1723, 1822, 1821
1318, 1723, 1724, 1823, 1822
1319, 1724, 1725, 1824, 1823
1320, 1725, 1726, 1825, 1824
1321, 1726, 1727, 1826, 1825
1322, 1727, 1728, 1827, 1826
1323, 1728, 1729, 1828, 1827
1324, 1729, 1730, 1829, 1828
1325, 1730, 1731, 1830, 1829
1326, 1731, 1732, 1831, 1830
1327, 1732, 1733, 1832, 1831
1328, 1733, 1734, 1833, 1832
1329, 1734, 1735, 1834, 1833
1330, 1735, 1736, 1835, 1834
1331, 1736, 1737, 1836, 1835
1332, 1737, 1738, 1837, 1836
1333, 1738, 1739, 1838, 1837
1334, 1739, 1740, 1839, 1838
1335, 1740, 1741, 1840, 1839
1336, 1741, 1742, 1841, 1840
1337, 1742, 1743, 1842, 1841
1338, 1743, 1744, 1843, 1842
1339, 1744, 1745, 1844, 1843
1340, 1745, 1746, 1845, 1844
1341, 1746, 1747, 1846, 1845
1342, 1747, 1748, 1847, 1846
1343, 1748, 1749, 1848, 1847
1344, 1749, 1750, 1849, 1848
1345, 1750, 1751, 1850, 1849
1346, 1751, 1752, 1851, 1850
1347, 1752, 1753, 1852, 1851
1348, 1753, 1754, 1853, 1852
1349, 1754, 1755, 1854, 1853
1350, 1755, 1756, 1855, 1854
1351, 1756, 1757, 1856, 1855
1352, 1757, 1758, 1857, 1856
1353, 1758, 1759, 1858, 1857
1354, 1759, 1760, 1859, 1858
1355, 1760, 1761, 1860, 1859
1356, 1761, 1762, 1861, 1860
1357, 1762, 1763, 1862, 1861
1358, 1763, 1764, 1863, 1862
1359, 1764, 1765, 1864, 1863
1360, 1765, 1766, 1865, 1864
1361, 1766, 1767, 1866, 1865
1362, 1767, 1768, 1867, 1866
1363, 1768, 1769, 1868, 1867
1364, 1769, 1770, 1869, 1868
1365, 1770, 1771, 1870, 1869
1366, 1771, 1772, 1871, 1870
1367, 1772, 1773, 1872, 1871
1368, 1773, 1774, 1873, 1872
1369, 1774, 1775, 1874, 1873
1370, 1775, 1776, 1875, 1874
1371, 1776, 1777, 1876, 1875
1372, 1777, 1778, 1877, 1876
1373, 1778, 1779, 1878, 1877
1374, 1779, 1780, 1879, 1878
1375, 1780, 1781, 1880, 1879
1376, 1781, 1782, 1881, 1880
1377, 1782, 1783, 1882, 1881
1378, 1783, 1784, 1883, 1882
1379, 1784, 1785, 1884, 1883
1380, 1785, 1786, 1885, 1884
1381, 1786, 1787, 1886, 1885
1382, 1787, 1788, 1887, 1886
1383, 1788, 1789, 1888, 1887
1384, 1789, 1790, 1889, 1888
1385, 1790, 1791, 1890, 1889
1386, 1791, 1792, 1891, 1890
1387, 1792, 1793, 1892, 1891
1388, 1793, 1794, 1893, 1892
1389, 1794, 1795, 1894, 1893
1390, 1795, 1796, 1895, 1894
1391, 1796, 1797, 1896, 1895
1392, 1797, 1798, 1897, 1896
1393, 1798, 1799, 1898, 1897
1394, 1799, 1800, 1899, 1898
1395, 1800, 1801, 1900, 1899
1396, 1801, 1802, 1901, 1900
1397, 1802, 1803, 1902, 1901
1398, 1803, 1804, 1903, 1902
1399, 1804, 1805, 1904, 1903
1400, 1805,  120,  121, 1904
1401,  231, 1806, 1905,  230
1402, 1806, 1807, 1906, 1905
1403, 1807, 1808, 1907, 1906
1404, 1808, 1809, 1908, 1907
1405, 1809, 1810, 1909, 1908
1406, 1810, 1811, 1910, 1909
1407, 1811, 1812, 1911, 1910
1408, 1812, 1813, 1912, 1911
1409, 1813, 1814, 1913, 1912
1410, 1814, 1815, 1914, 1913
1411, 1815, 1816, 1915, 1914
1412, 1816, 1817, 1916, 1915
1413, 1817, 1818, 1917, 1916
1414, 1818, 1819, 1918, 1917
1415, 1819, 1820, 1919, 1918
1416, 1820, 1821, 1920, 1919
1417, 1821, 1822, 1921, 1920
1418, 1822, 1823, 1922, 1921
1419, 1823, 1824, 1923, 1922
1420, 1824, 1825, 1924, 1923
1421, 1825, 1826, 1925, 1924
1422, 1826, 1827, 1926, 1925
1423, 1827, 1828, 1927, 1926
1424, 1828, 1829, 1928, 1927
1425, 1829, 1830, 1929, 1928
1426, 1830, 1831, 1930, 1929
1427, 1831, 1832, 1931, 1930
1428, 1832, 1833, 1932, 1931
1429, 1833, 1834, 1933, 1932
1430, 1834, 1835, 1934, 1933
1431, 1835, 1836, 1935, 1934
1432, 1836, 1837, 1936, 1935
1433, 1837, 1838, 1937, 1936
1434, 1838, 1839, 1938, 1937
1435, 1839, 1840, 1939, 1938
1436, 1840, 1841, 1940, 1939
1437, 1841, 1842, 1941, 1940
1438, 1842, 1843, 1942, 1941
1439, 1843, 1844, 1943, 1942
1440, 1844, 1845, 1944, 1943
1441, 1845, 1846, 1945, 1944
1442, 1846, 1847, 1946, 1945
1443, 1847, 1848, 1947, 1946
1444, 1848, 1849, 1948, 1947
1445, 1849, 1850, 1949, 1948
1446, 1850, 1851, 1950, 1949
1447, 1851, 1852, 1951, 1950
1448, 1852, 1853, 1952, 1951
1449, 1853, 1854, 1953, 1952
1450, 1854, 1855, 1954, 1953
1451, 1855, 1856, 1955, 1954
1452, 1856, 1857, 1956, 1955
1453, 1857, 1858, 1957, 1956
1454, 1858, 1859, 1958, 1957
1455, 1859, 1860, 1959, 1958
1456, 1860, 1861, 1960, 1959
1457, 1861, 1862, 1961, 1960
1458, 1862, 1863, 1962, 1961
1459, 1863, 1864, 1963, 1962
1460, 1864, 1865, 1964, 1963
1461, 1865, 1866, 1965, 1964
1462, 1866, 1867, 1966, 1965
1463, 1867, 1868, 1967, 1966
1464, 1868, 1869, 1968, 1967
1465, 1869, 1870, 1969, 1968
1466, 1870, 1871, 1970, 1969
1467, 1871, 1872, 1971, 1970
1468, 1872, 1873, 1972, 1971
1469, 1873, 1874, 1973, 1972
1470, 1874, 1875, 1974, 1973
1471, 1875, 1876, 1975, 1974
1472, 1876, 1877, 1976, 1975
1473, 1877, 1878, 1977, 1976
1474, 1878, 1879, 1978, 1977
1475, 1879, 1880, 1979, 1978
1476, 1880, 1881, 1980, 1979
1477, 1881, 1882, 1981, 1980
1478, 1882, 1883, 1982, 1981
1479, 1883, 1884, 1983, 1982
1480, 1884, 1885, 1984, 1983
1481, 1885, 1886, 1985, 1984
1482, 1886, 1887, 1986, 1985
1483, 1887, 1888, 1987, 1986
1484, 1888, 1889, 1988, 1987
1485, 1889, 1890, 1989, 1988
1486, 1890, 1891, 1990, 1989
1487, 1891, 1892, 1991, 1990
1488, 1892, 1893, 1992, 1991
1489, 1893, 1894, 1993, 1992
1490, 1894, 1895, 1994, 1993
1491, 1895, 1896, 1995, 1994
1492, 1896, 1897, 1996, 1995
1493, 1897, 1898, 1997, 1996
1494, 1898, 1899, 1998, 1997
1495, 1899, 1900, 1999, 1998
1496, 1900, 1901, 2000, 1999
1497, 1901, 1902, 2001, 2000
1498, 1902, 1903, 2002, 2001
1499, 1903, 1904, 2003, 2002
1500, 1904,  121,  122, 2003
1501,  230, 1905, 2004,  229
1502, 1905, 1906, 2005, 2004
1503, 1906, 1907, 2006, 2005
1504, 1907, 1908, 2007, 2006
1505, 1908, 1909, 2008, 2007
1506, 1909, 1910, 2009, 2008
1507, 1910, 1911, 2010, 2009
1508, 1911, 1912, 2011, 2010
1509, 1912, 1913, 2012, 2011
1510, 1913, 1914, 2013, 2012
1511, 1914, 1915, 2014, 2013
1512, 1915, 1916, 2015, 2014
1513, 1916, 1917, 2016, 2015
1514, 1917, 1918, 2017, 2016
1515, 1918, 1919, 2018, 2017
1516, 1919, 1920, 2019, 2018
1517, 1920, 1921, 2020, 2019
1518, 1921, 1922, 2021, 2020
1519, 1922, 1923, 2022, 2021
1520, 1923, 1924, 2023, 2022
1521, 1924, 1925, 2024, 2023
1522, 1925, 1926, 2025, 2024
1523, 1926, 1927, 2026, 2025
1524, 1927, 1928, 2027, 2026
1525, 1928, 1929, 2028, 2027
1526, 1929, 1930, 2029, 2028
1527, 1930, 1931, 2030, 2029
1528, 1931, 1932, 2031, 2030
1529, 1932, 1933, 2032, 2031
1530, 1933, 1934, 2033, 2032
1531, 1934, 1935, 2034, 2033
1532, 1935, 1936, 2035, 2034
1533, 1936, 1937, 2036, 2035
1534, 1937, 1938, 2037, 2036
1535, 1938, 1939, 2038, 2037
1536, 1939, 1940, 2039, 2038
1537, 1940, 1941, 2040, 2039
1538, 1941, 1942, 2041, 2040
1539, 1942, 1943, 2042, 2041
1540, 1943, 1944, 2043, 2042
1541, 1944, 1945, 2044, 2043
1542, 1945, 1946, 2045, 2044
1543, 1946, 1947, 2046, 2045
1544, 1947, 1948, 2047, 2046
1545, 1948, 1949, 2048, 2047
1546, 1949, 1950, 2049, 2048
1547, 1950, 1951, 2050, 2049
1548, 1951, 1952, 2051, 2050
1549, 1952, 1953, 2052, 2051
1550, 1953, 1954, 2053, 2052
1551, 1954, 1955, 2054, 2053
1552, 1955, 1956, 2055, 2054
1553, 1956, 1957, 2056, 2055
1554, 1957, 1958, 2057, 2056
1555, 1958, 1959, 2058, 2057
1556, 1959, 1960, 2059, 2058
1557, 1960, 1961, 2060, 2059
1558, 1961, 1962, 2061, 2060
1559, 1962, 1963, 2062, 2061
1560, 1963, 1964, 2063, 2062
1561, 1964, 1965, 2064, 2063
1562, 1965, 1966, 2065, 2064
1563, 1966, 1967, 2066, 2065
1564, 1967, 1968, 2067, 2066
1565, 1968, 1969, 2068, 2067
1566, 1969, 1970, 2069, 2068
1567, 1970, 1971, 2070, 2069
1568, 1971, 1972, 2071, 2070
1569, 1972, 1973, 2072, 2071
1570, 1973, 1974, 2073, 2072
1571, 1974, 1975, 2074, 2073
1572, 1975, 1976, 2075, 2074
1573, 1976, 1977, 2076, 2075
1574, 1977, 1978, 2077, 2076
1575, 1978, 1979, 2078, 2077
1576, 1979, 1980, 2079, 2078
1577, 1980, 1981, 2080, 2079
1578, 1981, 1982, 2081, 2080
1579, 1982, 1983, 2082, 2081
1580, 1983, 1984, 2083, 2082
1581, 1984, 1985, 2084, 2083
1582, 1985, 1986, 2085, 2084
1583, 1986, 1987, 2086, 2085
1584, 1987, 1988, 2087, 2086
1585, 1988, 1989, 2088, 2087
1586, 1989, 1990, 2089, 2088
1587, 1990, 1991, 2090, 2089
1588, 1991, 1992, 2091, 2090
1589, 1992, 1993, 2092, 2091
1590, 1993, 1994, 2093, 2092
1591, 1994, 1995, 2094, 2093
1592, 1995, 1996, 2095, 2094
1593, 1996, 1997, 2096, 2095
1594, 1997, 1998, 2097, 2096
1595, 1998, 1999, 2098, 2097
1596, 1999, 2000, 2099, 2098
1597, 2000, 2001, 2100, 2099
1598, 2001, 2002, 2101, 2100
1599, 2002, 2003, 2102, 2101
1600, 2003,  122,  123, 2102
1601,  229, 2004, 2103,  228
1602, 2004, 2005, 2104, 2103
1603, 2005, 2006, 2105, 2104
1604, 2006, 2007, 2106, 2105
1605, 2007, 2008, 2107, 2106
1606, 2008, 2009, 2108, 2107
1607, 2009, 2010, 2109, 2108
1608, 2010, 2011, 2110, 2109
1609, 2011, 2012, 2111, 2110
1610, 2012, 2013, 2112, 2111
1611, 2013, 2014, 2113, 2112
1612, 2014, 2015, 2114, 2113
1613, 2015, 2016, 2115, 2114
1614, 2016, 2017, 2116, 2115
1615, 2017, 2018, 2117, 2116
1616, 2018, 2019, 2118, 2117
1617, 2019, 2020, 2119, 2118
1618, 2020, 2021, 2120, 2119
1619, 2021, 2022, 2121, 2120
1620, 2022, 2023, 2122, 2121
1621, 2023, 2024, 2123, 2122
1622, 2024, 2025, 2124, 2123
1623, 2025, 2026, 2125, 2124
1624, 2026, 2027, 2126, 2125
1625, 2027, 2028, 2127, 2126
1626, 2028, 2029, 2128, 2127
1627, 2029, 2030, 2129, 2128
1628, 2030, 2031, 2130, 2129
1629, 2031, 2032, 2131, 2130
1630, 2032, 2033, 2132, 2131
1631, 2033, 2034, 2133, 2132
1632, 2034, 2035, 2134, 2133
1633, 2035, 2036, 2135, 2134
1634, 2036, 2037, 2136, 2135
1635, 2037, 2038, 2137, 2136
1636, 2038, 2039, 2138, 2137
1637, 2039, 2040, 2139, 2138
1638, 2040, 2041, 2140, 2139
1639, 2041, 2042, 2141, 2140
1640, 2042, 2043, 2142, 2141
1641, 2043, 2044, 2143, 2142
1642, 2044, 2045, 2144, 2143
1643, 2045, 2046, 2145, 2144
1644, 2046, 2047, 2146, 2145
1645, 2047, 2048, 2147, 2146
1646, 2048, 2049, 2148, 2147
1647, 2049, 2050, 2149, 2148
1648, 2050, 2051, 2150, 2149
1649, 2051, 2052, 2151, 2150
1650, 2052, 2053, 2152, 2151
1651, 2053, 2054, 2153, 2152
1652, 2054, 2055, 2154, 2153
1653, 2055, 2056, 2155, 2154
1654, 2056, 2057, 2156, 2155
1655, 2057, 2058, 2157, 2156
1656, 2058, 2059, 2158, 2157
1657, 2059, 2060, 2159, 2158
1658, 2060, 2061, 2160, 2159
1659, 2061, 2062, 2161, 2160
1660, 2062, 2063, 2162, 2161
1661, 2063, 2064, 2163, 2162
1662, 2064, 2065, 2164, 2163
1663, 2065, 2066, 2165, 2164
1664, 2066, 2067, 2166, 2165
1665, 2067, 2068, 2167, 2166
1666, 2068, 2069, 2168, 2167
1667, 2069, 2070, 2169, 2168
1668, 2070, 2071, 2170, 2169
1669, 2071, 2072, 2171, 2170
1670, 2072, 2073, 2172, 2171
1671, 2073, 2074, 2173, 2172
1672, 2074, 2075, 2174, 2173
1673, 2075, 2076, 2175, 2174
1674, 2076, 2077, 2176, 2175
1675, 2077, 2078, 2177, 2176
1676, 2078, 2079, 2178, 2177
1677, 2079, 2080, 2179, 2178
1678, 2080, 2081, 2180, 2179
1679, 2081, 2082, 2181, 2180
1680, 2082, 2083, 2182, 2181
1681, 2083, 2084, 2183, 2182
1682, 2084, 2085, 2184, 2183
1683, 2085, 2086, 2185, 2184
1684, 2086, 2087, 2186, 2185
1685, 2087, 2088, 2187, 2186
1686, 2088, 2089, 2188, 2187
1687, 2089, 2090, 2189, 2188
1688, 2090, 2091, 2190, 2189
1689, 2091, 2092, 2191, 2190
1690, 2092, 2093, 2192, 2191
1691, 2093, 2094, 2193, 2192
1692, 2094, 2095, 2194, 2193
1693, 2095, 2096, 2195, 2194
1694, 2096, 2097, 2196, 2195
1695, 2097, 2098, 2197, 2196
1696, 2098, 2099, 2198, 2197
1697, 2099, 2100, 2199, 2198
1698, 2100, 2101, 2200, 2199
1699, 2101, 2102, 2201, 2200
1700, 2102,  123,  124, 2201
1701,  228, 2103, 2202,  227
1702, 2103, 2104, 2203, 2202
1703, 2104, 2105, 2204, 2203
1704, 2105, 2106, 2205, 2204
1705, 2106, 2107, 2206, 2205
1706, 2107, 2108, 2207, 2206
1707, 2108, 2109, 2208, 2207
1708, 2109, 2110, 2209, 2208
1709, 2110, 2111, 2210, 2209
1710, 2111, 2112, 2211, 2210
1711, 2112, 2113, 2212, 2211
1712, 2113, 2114, 2213, 2212
1713, 2114, 2115, 2214, 2213
1714, 2115, 2116, 2215, 2214
1715, 2116, 2117, 2216, 2215
1716, 2117, 2118, 2217, 2216
1717, 2118, 2119, 2218, 2217
1718, 2119, 2120, 2219, 2218
1719, 2120, 2121, 2220, 2219
1720, 2121, 2122, 2221, 2220
1721, 2122, 2123, 2222, 2221
1722, 2123, 2124, 2223, 2222
1723, 2124, 2125, 2224, 2223
1724, 2125, 2126, 2225, 2224
1725, 2126, 2127, 2226, 2225
1726, 2127, 2128, 2227, 2226
1727, 2128, 2129, 2228, 2227
1728, 2129, 2130, 2229, 2228
1729, 2130, 2131, 2230, 2229
1730, 2131, 2132, 2231, 2230
1731, 2132, 2133, 2232, 2231
1732, 2133, 2134, 2233, 2232
1733, 2134, 2135, 2234, 2233
1734, 2135, 2136, 2235, 2234
1735, 2136, 2137, 2236, 2235
1736, 2137, 2138, 2237, 2236
1737, 2138, 2139, 2238, 2237
1738, 2139, 2140, 2239, 2238
1739, 2140, 2141, 2240, 2239
1740, 2141, 2142, 2241, 2240
1741, 2142, 2143, 2242, 2241
1742, 2143, 2144, 2243, 2242
1743, 2144, 2145, 2244, 2243
1744, 2145, 2146, 2245, 2244
1745, 2146, 2147, 2246, 2245
1746, 2147, 2148, 2247, 2246
1747, 2148, 2149, 2248, 2247
1748, 2149, 2150, 2249, 2248
1749, 2150, 2151, 2250, 2249
1750, 2151, 2152, 2251, 2250
1751, 2152, 2153, 2252, 2251
1752, 2153, 2154, 2253, 2252
1753, 2154, 2155, 2254, 2253
1754, 2155, 2156, 2255, 2254
1755, 2156, 2157, 2256, 2255
1756, 2157, 2158, 2257, 2256
1757, 2158, 2159, 2258, 2257
1758, 2159, 2160, 2259, 2258
1759, 2160, 2161, 2260, 2259
1760, 2161, 2162, 2261, 2260
1761, 2162, 2163, 2262, 2261
1762, 2163, 2164, 2263, 2262
1763, 2164, 2165, 2264, 2263
1764, 2165, 2166, 2265, 2264
1765, 2166, 2167, 2266, 2265
1766, 2167, 2168, 2267, 2266
1767, 2168, 2169, 2268, 2267
1768, 2169, 2170, 2269, 2268
1769, 2170, 2171, 2270, 2269
1770, 2171, 2172, 2271, 2270
1771, 2172, 2173, 2272, 2271
1772, 2173, 2174, 2273, 2272
1773, 2174, 2175, 2274, 2273
1774, 2175, 2176, 2275, 2274
1775, 2176, 2177, 2276, 2275
1776, 2177, 2178, 2277, 2276
1777, 2178, 2179, 2278, 2277
1778, 2179, 2180, 2279, 2278
1779, 2180, 2181, 2280, 2279
1780, 2181, 2182, 2281, 2280
1781, 2182, 2183, 2282, 2281
1782, 2183, 2184, 2283, 2282
1783, 2184, 2185, 2284, 2283
1784, 2185, 2186, 2285, 2284
1785, 2186, 2187, 2286, 2285
1786, 2187, 2188, 2287, 2286
1787, 2188, 2189, 2288, 2287
1788, 2189, 2190, 2289, 2288
1789, 2190, 2191, 2290, 2289
1790, 2191, 2192, 2291, 2290
1791, 2192, 2193, 2292, 2291
1792, 2193, 2194, 2293, 2292
1793, 2194, 2195, 2294, 2293
1794, 2195, 2196, 2295, 2294
1795, 2196, 2197, 2296, 2295
1796, 2197, 2198, 2297, 2296
1797, 2198, 2199, 2298, 2297
1798, 2199, 2200, 2299, 2298
1799, 2200, 2201, 2300, 2299
1800, 2201,  124,  125, 2300
1801,  227, 2202, 2301,  226
1802, 2202, 2203, 2302, 2301
1803, 2203, 2204, 2303, 2302
1804, 2204, 2205, 2304, 2303
1805, 2205, 2206, 2305, 2304
1806, 2206, 2207, 2306, 2305
1807, 2207, 2208, 2307, 2306
1808, 2208, 2209, 2308, 2307
1809, 2209, 2210, 2309, 2308
1810, 2210, 2211, 2310, 2309
1811, 2211, 2212, 2311, 2310
1812, 2212, 2213, 2312, 2311
1813, 2213, 2214, 2313, 2312
1814, 2214, 2215, 2314, 2313
1815, 2215, 2216, 2315, 2314
1816, 2216, 2217, 2316, 2315
1817, 2217, 2218, 2317, 2316
1818, 2218, 2219, 2318, 2317
1819, 2219, 2220, 2319, 2318
1820, 2220, 2221, 2320, 2319
1821, 2221, 2222, 2321, 2320
1822, 2222, 2223, 2322, 2321
1823, 2223, 2224, 2323, 2322
1824, 2224, 2225, 2324, 2323
1825, 2225, 2226, 2325, 2324
1826, 2226, 2227, 2326, 2325
1827, 2227, 2228, 2327, 2326
1828, 2228, 2229, 2328, 2327
1829, 2229, 2230, 2329, 2328
1830, 2230, 2231, 2330, 2329
1831, 2231, 2232, 2331, 2330
1832, 2232, 2233, 2332, 2331
1833, 2233, 2234, 2333, 2332
1834, 2234, 2235, 2334, 2333
1835, 2235, 2236, 2335, 2334
1836, 2236, 2237, 2336, 2335
1837, 2237, 2238, 2337, 2336
1838, 2238, 2239, 2338, 2337
1839, 2239, 2240, 2339, 2338
1840, 2240, 2241, 2340, 2339
1841, 2241, 2242, 2341, 2340
1842, 2242, 2243, 2342, 2341
1843, 2243, 2244, 2343, 2342
1844, 2244, 2245, 2344, 2343
1845, 2245, 2246, 2345, 2344
1846, 2246, 2247, 2346, 2345
1847, 2247, 2248, 2347, 2346
1848, 2248, 2249, 2348, 2347
1849, 2249, 2250, 2349, 2348
1850, 2250, 2251, 2350, 2349
1851, 2251, 2252, 2351, 2350
1852, 2252, 2253, 2352, 2351
1853, 2253, 2254, 2353, 2352
1854, 2254, 2255, 2354, 2353
1855, 2255, 2256, 2355, 2354
1856, 2256, 2257, 2356, 2355
1857, 2257, 2258, 2357, 2356
1858, 2258, 2259, 2358, 2357
1859, 2259, 2260, 2359, 2358
1860, 2260, 2261, 2360, 2359
1861, 2261, 2262, 2361, 2360
1862, 2262, 2263, 2362, 2361
1863, 2263, 2264, 2363, 2362
1864, 2264, 2265, 2364, 2363
1865, 2265, 2266, 2365, 2364
1866, 2266, 2267, 2366, 2365
1867, 2267, 2268, 2367, 2366
1868, 2268, 2269, 2368, 2367
1869, 2269, 2270, 2369, 2368
1870, 2270, 2271, 2370, 2369
1871, 2271, 2272, 2371, 2370
1872, 2272, 2273, 2372, 2371
1873, 2273, 2274, 2373, 2372
1874, 2274, 2275, 2374, 2373
1875, 2275, 2276, 2375, 2374
1876, 2276, 2277, 2376, 2375
1877, 2277, 2278, 2377, 2376
1878, 2278, 2279, 2378, 2377
1879, 2279, 2280, 2379, 2378
1880, 2280, 2281, 2380, 2379
1881, 2281, 2282, 2381, 2380
1882, 2282, 2283, 2382, 2381
1883, 2283, 2284, 2383, 2382
1884, 2284, 2285, 2384, 2383
1885, 2285, 2286, 2385, 2384
1886, 2286, 2287, 2386, 2385
1887, 2287, 2288, 2387, 2386
1888, 2288, 2289, 2388, 2387
1889, 2289, 2290, 2389, 2388
1890, 2290, 2291, 2390, 2389
1891, 2291, 2292, 2391, 2390
1892, 2292, 2293, 2392, 2391
1893, 2293, 2294, 2393, 2392
1894, 2294, 2295, 2394, 2393
1895, 2295, 2296, 2395, 2394
1896, 2296, 2297, 2396, 2395
1897, 2297, 2298, 2397, 2396
1898, 2298, 2299, 2398, 2397
1899, 2299, 2300, 2399, 2398
1900, 2300,  125,  126, 2399
1901,  226, 2301,  225,    4
1902, 2301, 2302,  224,  225
1903, 2302, 2303,  223,  224
1904, 2303, 2304,  222,  223
1905, 2304, 2305,  221,  222
1906, 2305, 2306,  220,  221
1907, 2306, 2307,  219,  220
1908, 2307, 2308,  218,  219
1909, 2308, 2309,  217,  218
1910, 2309, 2310,  216,  217
1911, 2310, 2311,  215,  216
1912, 2311, 2312,  214,  215
1913, 2312, 2313,  213,  214
1914, 2313, 2314,  212,  213
1915, 2314, 2315,  211,  212
1916, 2315, 2316,  210,  211
1917, 2316, 2317,  209,  210
1918, 2317, 2318,  208,  209
1919, 2318, 2319,  207,  208
1920, 2319, 2320,  206,  207
1921, 2320, 2321,  205,  206
1922, 2321, 2322,  204,  205
1923, 2322, 2323,  203,  204
1924, 2323, 2324,  202,  203
1925, 2324, 2325,  201,  202
1926, 2325, 2326,  200,  201
1927, 2326, 2327,  199,  200
1928, 2327, 2328,  198,  199
1929, 2328, 2329,  197,  198
1930, 2329, 2330,  196,  197
1931, 2330, 2331,  195,  196
1932, 2331, 2332,  194,  195
1933, 2332, 2333,  193,  194
1934, 2333, 2334,  192,  193
1935, 2334, 2335,  191,  192
1936, 2335, 2336,  190,  191
1937, 2336, 2337,  189,  190
1938, 2337, 2338,  188,  189
1939, 2338, 2339,  187,  188
1940, 2339, 2340,  186,  187
1941, 2340, 2341,  185,  186
1942, 2341, 2342,  184,  185
1943, 2342, 2343,  183,  184
1944, 2343, 2344,  182,  183
1945, 2344, 2345,  181,  182
1946, 2345, 2346,  180,  181
1947, 2346, 2347,  179,  180
1948, 2347, 2348,  178,  179
1949, 2348, 2349,  177,  178
1950, 2349, 2350,  176,  177
1951, 2350, 2351,  175,  176
1952, 2351, 2352,  174,  175
1953, 2352, 2353,  173,  174
1954, 2353, 2354,  172,  173
1955, 2354, 2355,  171,  172
1956, 2355, 2356,  170,  171
1957, 2356, 2357,  169,  170
1958, 2357, 2358,  168,  169
1959, 2358, 2359,  167,  168
1960, 2359, 2360,  166,  167
1961, 2360, 2361,  165,  166
1962, 2361, 2362,  164,  165
1963, 2362, 2363,  163,  164
1964, 2363, 2364,  162,  163
1965, 2364, 2365,  161,  162
1966, 2365, 2366,  160,  161
1967, 2366, 2367,  159,  160
1968, 2367, 2368,  158,  159
1969, 2368, 2369,  157,  158
1970, 2369, 2370,  156,  157
1971, 2370, 2371,  155,  156
1972, 2371, 2372,  154,  155
1973, 2372, 2373,  153,  154
1974, 2373, 2374,  152,  153
1975, 2374, 2375,  151,  152
1976, 2375, 2376,  150,  151
1977, 2376, 2377,  149,  150
1978, 2377, 2378,  148,  149
1979, 2378, 2379,  147,  148
1980, 2379, 2380,  146,  147
1981, 2380, 2381,  145,  146
1982, 2381, 2382,  144,  145
1983, 2382, 2383,  143,  144
1984, 2383, 2384,  142,  143
1985, 2384, 2385,  141,  142
1986, 2385, 2386,  140,  141
1987, 2386, 2387,  139,  140
1988, 2387, 2388,  138,  139
1989, 2388, 2389,  137,  138
1990, 2389, 2390,  136,  137
1991, 2390, 2391,  135,  136
1992, 2391, 2392,  134,  135
1993, 2392, 2393,  133,  134
1994, 2393, 2394,  132,  133
1995, 2394, 2395,  131,  132
1996, 2395, 2396,  130,  131
1997, 2396, 2397,  129,  130
1998, 2397, 2398,  128,  129
1999, 2398, 2399,  127,  128
2000, 2399,  126,    3,  127
2001,    4,  225, 2400,  381
2002,  225,  224, 2401, 2400
2003,  224,  223, 2402, 2401
2004,  223,  222, 2403, 2402
2005,  222,  221, 2404, 2403
2006,  221,  220, 2405, 2404
2007,  220,  219, 2406, 2405
2008,  219,  218, 2407, 2406
2009,  218,  217, 2408, 2407
2010,  217,  216, 2409, 2408
2011,  216,  215, 2410, 2409
2012,  215,  214, 2411, 2410
2013,  214,  213, 2412, 2411
2014,  213,  212, 2413, 2412
2015,  212,  211, 2414, 2413
2016,  211,  210, 2415, 2414
2017,  210,  209, 2416, 2415
2018,  209,  208, 2417, 2416
2019,  208,  207, 2418, 2417
2020,  207,  206, 2419, 2418
2021,  206,  205, 2420, 2419
2022,  205,  204, 2421, 2420
2023,  204,  203, 2422, 2421
2024,  203,  202, 2423, 2422
2025,  202,  201, 2424, 2423
2026,  201,  200, 2425, 2424
2027,  200,  199, 2426, 2425
2028,  199,  198, 2427, 2426
2029,  198,  197, 2428, 2427
2030,  197,  196, 2429, 2428
2031,  196,  195, 2430, 2429
2032,  195,  194, 2431, 2430
2033,  194,  193, 2432, 2431
2034,  193,  192, 2433, 2432
2035,  192,  191, 2434, 2433
2036,  191,  190, 2435, 2434
2037,  190,  189, 2436, 2435
2038,  189,  188, 2437, 2436
2039,  188,  187, 2438, 2437
2040,  187,  186, 2439, 2438
2041,  186,  185, 2440, 2439
2042,  185,  184, 2441, 2440
2043,  184,  183, 2442, 2441
2044,  183,  182, 2443, 2442
2045,  182,  181, 2444, 2443
2046,  181,  180, 2445, 2444
2047,  180,  179, 2446, 2445
2048,  179,  178, 2447, 2446
2049,  178,  177, 2448, 2447
2050,  177,  176, 2449, 2448
2051,  176,  175, 2450, 2449
2052,  175,  174, 2451, 2450
2053,  174,  173, 2452, 2451
2054,  173,  172, 2453, 2452
2055,  172,  171, 2454, 2453
2056,  171,  170, 2455, 2454
2057,  170,  169, 2456, 2455
2058,  169,  168, 2457, 2456
2059,  168,  167, 2458, 2457
2060,  167,  166, 2459, 2458
2061,  166,  165, 2460, 2459
2062,  165,  164, 2461, 2460
2063,  164,  163, 2462, 2461
2064,  163,  162, 2463, 2462
2065,  162,  161, 2464, 2463
2066,  161,  160, 2465, 2464
2067,  160,  159, 2466, 2465
2068,  159,  158, 2467, 2466
2069,  158,  157, 2468, 2467
2070,  157,  156, 2469, 2468
2071,  156,  155, 2470, 2469
2072,  155,  154, 2471, 2470
2073,  154,  153, 2472, 2471
2074,  153,  152, 2473, 2472
2075,  152,  151, 2474, 2473
2076,  151,  150, 2475, 2474
2077,  150,  149, 2476, 2475
2078,  149,  148, 2477, 2476
2079,  148,  147, 2478, 2477
2080,  147,  146, 2479, 2478
2081,  146,  145, 2480, 2479
2082,  145,  144, 2481, 2480
2083,  144,  143, 2482, 2481
2084,  143,  142, 2483, 2482
2085,  142,  141, 2484, 2483
2086,  141,  140, 2485, 2484
2087,  140,  139, 2486, 2485
2088,  139,  138, 2487, 2486
2089,  138,  137, 2488, 2487
2090,  137,  136, 2489, 2488
2091,  136,  135, 2490, 2489
2092,  135,  134, 2491, 2490
2093,  134,  133, 2492, 2491
2094,  133,  132, 2493, 2492
2095,  132,  131, 2494, 2493
2096,  131,  130, 2495, 2494
2097,  130,  129, 2496, 2495
2098,  129,  128, 2497, 2496
2099,  128,  127, 2498, 2497
2100,  127,    3,  245, 2498
2101,  381, 2400, 2499,  380
2102, 2400, 2401, 2500, 2499
2103, 2401, 2402, 2501, 2500
2104, 2402, 2403, 2502, 2501
2105, 2403, 2404, 2503, 2502
2106, 2404, 2405, 2504, 2503
2107, 2405, 2406, 2505, 2504
2108, 2406, 2407, 2506, 2505
2109, 2407, 2408, 2507, 2506
2110, 2408, 2409, 2508, 2507
2111, 2409, 2410, 2509, 2508
2112, 2410, 2411, 2510, 2509
2113, 2411, 2412, 2511, 2510
2114, 2412, 2413, 2512, 2511
2115, 2413, 2414, 2513, 2512
2116, 2414, 2415, 2514, 2513
2117, 2415, 2416, 2515, 2514
2118, 2416, 2417, 2516, 2515
2119, 2417, 2418, 2517, 2516
2120, 2418, 2419, 2518, 2517
2121, 2419, 2420, 2519, 2518
2122, 2420, 2421, 2520, 2519
2123, 2421, 2422, 2521, 2520
2124, 2422, 2423, 2522, 2521
2125, 2423, 2424, 2523, 2522
2126, 2424, 2425, 2524, 2523
2127, 2425, 2426, 2525, 2524
2128, 2426, 2427, 2526, 2525
2129, 2427, 2428, 2527, 2526
2130, 2428, 2429, 2528, 2527
2131, 2429, 2430, 2529, 2528
2132, 2430, 2431, 2530, 2529
2133, 2431, 2432, 2531, 2530
2134, 2432, 2433, 2532, 2531
2135, 2433, 2434, 2533, 2532
2136, 2434, 2435, 2534, 2533
2137, 2435, 2436, 2535, 2534
2138, 2436, 2437, 2536, 2535
2139, 2437, 2438, 2537, 2536
2140, 2438, 2439, 2538, 2537
2141, 2439, 2440, 2539, 2538
2142, 2440, 2441, 2540, 2539
2143, 2441, 2442, 2541, 2540
2144, 2442, 2443, 2542, 2541
2145, 2443, 2444, 2543, 2542
2146, 2444, 2445, 2544, 2543
2147, 2445, 2446, 2545, 2544
2148, 2446, 2447, 2546, 2545
2149, 2447, 2448, 2547, 2546
2150, 2448, 2449, 2548, 2547
2151, 2449, 2450, 2549, 2548
2152, 2450, 2451, 2550, 2549
2153, 2451, 2452, 2551, 2550
2154, 2452, 2453, 2552, 2551
2155, 2453, 2454, 2553, 2552
2156, 2454, 2455, 2554, 2553
2157, 2455, 2456, 2555, 2554
2158, 2456, 2457, 2556, 2555
2159, 2457, 2458, 2557, 2556
2160, 2458, 2459, 2558, 2557
2161, 2459, 2460, 2559, 2558
2162, 2460, 2461, 2560, 2559
2163, 2461, 2462, 2561, 2560
2164, 2462, 2463, 2562, 2561
2165, 2463, 2464, 2563, 2562
2166, 2464, 2465, 2564, 2563
2167, 2465, 2466, 2565, 2564
2168, 2466, 2467, 2566, 2565
2169, 2467, 2468, 2567, 2566
2170, 2468, 2469, 2568, 2567
2171, 2469, 2470, 2569, 2568
2172, 2470, 2471, 2570, 2569
2173, 2471, 2472, 2571, 2570
2174, 2472, 2473, 2572, 2571
2175, 2473, 2474, 2573, 2572
2176, 2474, 2475, 2574, 2573
2177, 2475, 2476, 2575, 2574
2178, 2476, 2477, 2576, 2575
2179, 2477, 2478, 2577, 2576
2180, 2478, 2479, 2578, 2577
2181, 2479, 2480, 2579, 2578
2182, 2480, 2481, 2580, 2579
2183, 2481, 2482, 2581, 2580
2184, 2482, 2483, 2582, 2581
2185, 2483, 2484, 2583, 2582
2186, 2484, 2485, 2584, 2583
2187, 2485, 2486, 2585, 2584
2188, 2486, 2487, 2586, 2585
2189, 2487, 2488, 2587, 2586
2190, 2488, 2489, 2588, 2587
2191, 2489, 2490, 2589, 2588
2192, 2490, 2491, 2590, 2589
2193, 2491, 2492, 2591, 2590
2194, 2492, 2493, 2592, 2591
2195, 2493, 2494, 2593, 2592
2196, 2494, 2495, 2594, 2593
2197, 2495, 2496, 2595, 2594
2198, 2496, 2497, 2596, 2595
2199, 2497, 2498, 2597, 2596
2200, 2498,  245,  246, 2597
2201,  380, 2499, 2598,  379
2202, 2499, 2500, 2599, 2598
2203, 2500, 2501, 2600, 2599
2204, 2501, 2502, 2601, 2600
2205, 2502, 2503, 2602, 2601
2206, 2503, 2504, 2603, 2602
2207, 2504, 2505, 2604, 2603
2208, 2505, 2506, 2605, 2604
2209, 2506, 2507, 2606, 2605
2210, 2507, 2508, 2607, 2606
2211, 2508, 2509, 2608, 2607
2212, 2509, 2510, 2609, 2608
2213, 2510, 2511, 2610, 2609
2214, 2511, 2512, 2611, 2610
2215, 2512, 2513, 2612, 2611
2216, 2513, 2514, 2613, 2612
2217, 2514, 2515, 2614, 2613
2218, 2515, 2516, 2615, 2614
2219, 2516, 2517, 2616, 2615
2220, 2517, 2518, 2617, 2616
2221, 2518, 2519, 2618, 2617
2222, 2519, 2520, 2619, 2618
2223, 2520, 2521, 2620, 2619
2224, 2521, 2522, 2621, 2620
2225, 2522, 2523, 2622, 2621
2226, 2523, 2524, 2623, 2622
2227, 2524, 2525, 2624, 2623
2228, 2525, 2526, 2625, 2624
2229, 2526, 2527, 2626, 2625
2230, 2527, 2528, 2627, 2626
2231, 2528, 2529, 2628, 2627
2232, 2529, 2530, 2629, 2628
2233, 2530, 2531, 2630, 2629
2234, 2531, 2532, 2631, 2630
2235, 2532, 2533, 2632, 2631
2236, 2533, 2534, 2633, 2632
2237, 2534, 2535, 2634, 2633
2238, 2535, 2536, 2635, 2634
2239, 2536, 2537, 2636, 2635
2240, 2537, 2538, 2637, 2636
2241, 2538, 2539, 2638, 2637
2242, 2539, 2540, 2639, 2638
2243, 2540, 2541, 2640, 2639
2244, 2541, 2542, 2641, 2640
2245, 2542, 2543, 2642, 2641
2246, 2543, 2544, 2643, 2642
2247, 2544, 2545, 2644, 2643
2248, 2545, 2546, 2645, 2644
2249, 2546, 2547, 2646, 2645
2250, 2547, 2548, 2647, 2646
2251, 2548, 2549, 2648, 2647
2252, 2549, 2550, 2649, 2648
2253, 2550, 2551, 2650, 2649
2254, 2551, 2552, 2651, 2650
2255, 2552, 2553, 2652, 2651
2256, 2553, 2554, 2653, 2652
2257, 2554, 2555, 2654, 2653
2258, 2555, 2556, 2655, 2654
2259, 2556, 2557, 2656, 2655
2260, 2557, 2558, 2657, 2656
2261, 2558, 2559, 2658, 2657
2262, 2559, 2560, 2659, 2658
2263, 2560, 2561, 2660, 2659
2264, 2561, 2562, 2661, 2660
2265, 2562, 2563, 2662, 2661
2266, 2563, 2564, 2663, 2662
2267, 2564, 2565, 2664, 2663
2268, 2565, 2566, 2665, 2664
2269, 2566, 2567, 2666, 2665
2270, 2567, 2568, 2667, 2666
2271, 2568, 2569, 2668, 2667
2272, 2569, 2570, 2669, 2668
2273, 2570, 2571, 2670, 2669
2274, 2571, 2572, 2671, 2670
2275, 2572, 2573, 2672, 2671
2276, 2573, 2574, 2673, 2672
2277, 2574, 2575, 2674, 2673
2278, 2575, 2576, 2675, 2674
2279, 2576, 2577, 2676, 2675
2280, 2577, 2578, 2677, 2676
2281, 2578, 2579, 2678, 2677
2282, 2579, 2580, 2679, 2678
2283, 2580, 2581, 2680, 2679
2284, 2581, 2582, 2681, 2680
2285, 2582, 2583, 2682, 2681
2286, 2583, 2584, 2683, 2682
2287, 2584, 2585, 2684, 2683
2288, 2585, 2586, 2685, 2684
2289, 2586, 2587, 2686, 2685
2290, 2587, 2588, 2687, 2686
2291, 2588, 2589, 2688, 2687
2292, 2589, 2590, 2689, 2688
2293, 2590, 2591, 2690, 2689
2294, 2591, 2592, 2691, 2690
2295, 2592, 2593, 2692, 2691
2296, 2593, 2594, 2693, 2692
2297, 2594, 2595, 2694, 2693
2298, 2595, 2596, 2695, 2694
2299, 2596, 2597, 2696, 2695
2300, 2597,  246,  247, 2696
2301,  379, 2598, 2697,  378
2302, 2598, 2599, 2698, 2697
2303, 2599, 2600, 2699, 2698
2304, 2600, 2601, 2700, 2699
2305, 2601, 2602, 2701, 2700
2306, 2602, 2603, 2702, 2701
2307, 2603, 2604, 2703, 2702
2308, 2604, 2605, 2704, 2703
2309, 2605, 2606, 2705, 2704
2310, 2606, 2607, 2706, 2705
2311, 2607, 2608, 2707, 2706
2312, 2608, 2609, 2708, 2707
2313, 2609, 2610, 2709, 2708
2314, 2610, 2611, 2710, 2709
2315, 2611, 2612, 2711, 2710
2316, 2612, 2613, 2712, 2711
2317, 2613, 2614, 2713, 2712
2318, 2614, 2615, 2714, 2713
2319, 2615, 2616, 2715, 2714
2320, 2616, 2617, 2716, 2715
2321, 2617, 2618, 2717, 2716
2322, 2618, 2619, 2718, 2717
2323, 2619, 2620, 2719, 2718
2324, 2620, 2621, 2720, 2719
2325, 2621, 2622, 2721, 2720
2326, 2622, 2623, 2722, 2721
2327, 2623, 2624, 2723, 2722
2328, 2624, 2625, 2724, 2723
2329, 2625, 2626, 2725, 2724
2330, 2626, 2627, 2726, 2725
2331, 2627, 2628, 2727, 2726
2332, 2628, 2629, 2728, 2727
2333, 2629, 2630, 2729, 2728
2334, 2630, 2631, 2730, 2729
2335, 2631, 2632, 2731, 2730
2336, 2632, 2633, 2732, 2731
2337, 2633, 2634, 2733, 2732
2338, 2634, 2635, 2734, 2733
2339, 2635, 2636, 2735, 2734
2340, 2636, 2637, 2736, 2735
2341, 2637, 2638, 2737, 2736
2342, 2638, 2639, 2738, 2737
2343, 2639, 2640, 2739, 2738
2344, 2640, 2641, 2740, 2739
2345, 2641, 2642, 2741, 2740
2346, 2642, 2643, 2742, 2741
2347, 2643, 2644, 2743, 2742
2348, 2644, 2645, 2744, 2743
2349, 2645, 2646, 2745, 2744
2350, 2646, 2647, 2746, 2745
2351, 2647, 2648, 2747, 2746
2352, 2648, 2649, 2748, 2747
2353, 2649, 2650, 2749, 2748
2354, 2650, 2651, 2750, 2749
2355, 2651, 2652, 2751, 2750
2356, 2652, 2653, 2752, 2751
2357, 2653, 2654, 2753, 2752
2358, 2654, 2655, 2754, 2753
2359, 2655, 2656, 2755, 2754
2360, 2656, 2657, 2756, 2755
2361, 2657, 2658, 2757, 2756
2362, 2658, 2659, 2758, 2757
2363, 2659, 2660, 2759, 2758
2364, 2660, 2661, 2760, 2759
2365, 2661, 2662, 2761, 2760
2366, 2662, 2663, 2762, 2761
2367, 2663, 2664, 2763, 2762
2368, 2664, 2665, 2764, 2763
2369, 2665, 2666, 2765, 2764
2370, 2666, 2667, 2766, 2765
2371, 2667, 2668, 2767, 2766
2372, 2668, 2669, 2768, 2767
2373, 2669, 2670, 2769, 2768
2374, 2670, 2671, 2770, 2769
2375, 2671, 2672, 2771, 2770
2376, 2672, 2673, 2772, 2771
2377, 2673, 2674, 2773, 2772
2378, 2674, 2675, 2774, 2773
2379, 2675, 2676, 2775, 2774
2380, 2676, 2677, 2776, 2775
2381, 2677, 2678, 2777, 2776
2382, 2678, 2679, 2778, 2777
2383, 2679, 2680, 2779, 2778
2384, 2680, 2681, 2780, 2779
2385, 2681, 2682, 2781, 2780
2386, 2682, 2683, 2782, 2781
2387, 2683, 2684, 2783, 2782
2388, 2684, 2685, 2784, 2783
2389, 2685, 2686, 2785, 2784
2390, 2686, 2687, 2786, 2785
2391, 2687, 2688, 2787, 2786
2392, 2688, 2689, 2788, 2787
2393, 2689, 2690, 2789, 2788
2394, 2690, 2691, 2790, 2789
2395, 2691, 2692, 2791, 2790
2396, 2692, 2693, 2792, 2791
2397, 2693, 2694, 2793, 2792
2398, 2694, 2695, 2794, 2793
2399, 2695, 2696, 2795, 2794
2400, 2696,  247,  248, 2795
2401,  378, 2697, 2796,  377
2402, 2697, 2698, 2797, 2796
2403, 2698, 2699, 2798, 2797
2404, 2699, 2700, 2799, 2798
2405, 2700, 2701, 2800, 2799
2406, 2701, 2702, 2801, 2800
2407, 2702, 2703, 2802, 2801
2408, 2703, 2704, 2803, 2802
2409, 2704, 2705, 2804, 2803
2410, 2705, 2706, 2805, 2804
2411, 2706, 2707, 2806, 2805
2412, 2707, 2708, 2807, 2806
2413, 2708, 2709, 2808, 2807
2414, 2709, 2710, 2809, 2808
2415, 2710, 2711, 2810, 2809
2416, 2711, 2712, 2811, 2810
2417, 2712, 2713, 2812, 2811
2418, 2713, 2714, 2813, 2812
2419, 2714, 2715, 2814, 2813
2420, 2715, 2716, 2815, 2814
2421, 2716, 2717, 2816, 2815
2422, 2717, 2718, 2817, 2816
2423, 2718, 2719, 2818, 2817
2424, 2719, 2720, 2819, 2818
2425, 2720, 2721, 2820, 2819
2426, 2721, 2722, 2821, 2820
2427, 2722, 2723, 2822, 2821
2428, 2723, 2724, 2823, 2822
2429, 2724, 2725, 2824, 2823
2430, 2725, 2726, 2825, 2824
2431, 2726, 2727, 2826, 2825
2432, 2727, 2728, 2827, 2826
2433, 2728, 2729, 2828, 2827
2434, 2729, 2730, 2829, 2828
2435, 2730, 2731, 2830, 2829
2436, 2731, 2732, 2831, 2830
2437, 2732, 2733, 2832, 2831
2438, 2733, 2734, 2833, 2832
2439, 2734, 2735, 2834, 2833
2440, 2735, 2736, 2835, 2834
2441, 2736, 2737, 2836, 2835
2442, 2737, 2738, 2837, 2836
2443, 2738, 2739, 2838, 2837
2444, 2739, 2740, 2839, 2838
2445, 2740, 2741, 2840, 2839
2446, 2741, 2742, 2841, 2840
2447, 2742, 2743, 2842, 2841
2448, 2743, 2744, 2843, 2842
2449, 2744, 2745, 2844, 2843
2450, 2745, 2746, 2845, 2844
2451, 2746, 2747, 2846, 2845
2452, 2747, 2748, 2847, 2846
2453, 2748, 2749, 2848, 2847
2454, 2749, 2750, 2849, 2848
2455, 2750, 2751, 2850, 2849
2456, 2751, 2752, 2851, 2850
2457, 2752, 2753, 2852, 2851
2458, 2753, 2754, 2853, 2852
2459, 2754, 2755, 2854, 2853
2460, 2755, 2756, 2855, 2854
2461, 2756, 2757, 2856, 2855
2462, 2757, 2758, 2857, 2856
2463, 2758, 2759, 2858, 2857
2464, 2759, 2760, 2859, 2858
2465, 2760, 2761, 2860, 2859
2466, 2761, 2762, 2861, 2860
2467, 2762, 2763, 2862, 2861
2468, 2763, 2764, 2863, 2862
2469, 2764, 2765, 2864, 2863
2470, 2765, 2766, 2865, 2864
2471, 2766, 2767, 2866, 2865
2472, 2767, 2768, 2867, 2866
2473, 2768, 2769, 2868, 2867
2474, 2769, 2770, 2869, 2868
2475, 2770, 2771, 2870, 2869
2476, 2771, 2772, 2871, 2870
2477, 2772, 2773, 2872, 2871
2478, 2773, 2774, 2873, 2872
2479, 2774, 2775, 2874, 2873
2480, 2775, 2776, 2875, 2874
2481, 2776, 2777, 2876, 2875
2482, 2777, 2778, 2877, 2876
2483, 2778, 2779, 2878, 2877
2484, 2779, 2780, 2879, 2878
2485, 2780, 2781, 2880, 2879
2486, 2781, 2782, 2881, 2880
2487, 2782, 2783, 2882, 2881
2488, 2783, 2784, 2883, 2882
2489, 2784, 2785, 2884, 2883
2490, 2785, 2786, 2885, 2884
2491, 2786, 2787, 2886, 2885
2492, 2787, 2788, 2887, 2886
2493, 2788, 2789, 2888, 2887
2494, 2789, 2790, 2889, 2888
2495, 2790, 2791, 2890, 2889
2496, 2791, 2792, 2891, 2890
2497, 2792, 2793, 2892, 2891
2498, 2793, 2794, 2893, 2892
2499, 2794, 2795, 2894, 2893
2500, 2795,  248,  249, 2894
2501,  377, 2796, 2895,  376
2502, 2796, 2797, 2896, 2895
2503, 2797, 2798, 2897, 2896
2504, 2798, 2799, 2898, 2897
2505, 2799, 2800, 2899, 2898
2506, 2800, 2801, 2900, 2899
2507, 2801, 2802, 2901, 2900
2508, 2802, 2803, 2902, 2901
2509, 2803, 2804, 2903, 2902
2510, 2804, 2805, 2904, 2903
2511, 2805, 2806, 2905, 2904
2512, 2806, 2807, 2906, 2905
2513, 2807, 2808, 2907, 2906
2514, 2808, 2809, 2908, 2907
2515, 2809, 2810, 2909, 2908
2516, 2810, 2811, 2910, 2909
2517, 2811, 2812, 2911, 2910
2518, 2812, 2813, 2912, 2911
2519, 2813, 2814, 2913, 2912
2520, 2814, 2815, 2914, 2913
2521, 2815, 2816, 2915, 2914
2522, 2816, 2817, 2916, 2915
2523, 2817, 2818, 2917, 2916
2524, 2818, 2819, 2918, 2917
2525, 2819, 2820, 2919, 2918
2526, 2820, 2821, 2920, 2919
2527, 2821, 2822, 2921, 2920
2528, 2822, 2823, 2922, 2921
2529, 2823, 2824, 2923, 2922
2530, 2824, 2825, 2924, 2923
2531, 2825, 2826, 2925, 2924
2532, 2826, 2827, 2926, 2925
2533, 2827, 2828, 2927, 2926
2534, 2828, 2829, 2928, 2927
2535, 2829, 2830, 2929, 2928
2536, 2830, 2831, 2930, 2929
2537, 2831, 2832, 2931, 2930
2538, 2832, 2833, 2932, 2931
2539, 2833, 2834, 2933, 2932
2540, 2834, 2835, 2934, 2933
2541, 2835, 2836, 2935, 2934
2542, 2836, 2837, 2936, 2935
2543, 2837, 2838, 2937, 2936
2544, 2838, 2839, 2938, 2937
2545, 2839, 2840, 2939, 2938
2546, 2840, 2841, 2940, 2939
2547, 2841, 2842, 2941, 2940
2548, 2842, 2843, 2942, 2941
2549, 2843, 2844, 2943, 2942
2550, 2844, 2845, 2944, 2943
2551, 2845, 2846, 2945, 2944
2552, 2846, 2847, 2946, 2945
2553, 2847, 2848, 2947, 2946
2554, 2848, 2849, 2948, 2947
2555, 2849, 2850, 2949, 2948
2556, 2850, 2851, 2950, 2949
2557, 2851, 2852, 2951, 2950
2558, 2852, 2853, 2952, 2951
2559, 2853, 2854, 2953, 2952
2560, 2854, 2855, 2954, 2953
2561, 2855, 2856, 2955, 2954
2562, 2856, 2857, 2956, 2955
2563, 2857, 2858, 2957, 2956
2564, 2858, 2859, 2958, 2957
2565, 2859, 2860, 2959, 2958
2566, 2860, 2861, 2960, 2959
2567, 2861, 2862, 2961, 2960
2568, 2862, 2863, 2962, 2961
2569, 2863, 2864, 2963, 2962
2570, 2864, 2865, 2964, 2963
2571, 2865, 2866, 2965, 2964
2572, 2866, 2867, 2966, 2965
2573, 2867, 2868, 2967, 2966
2574, 2868, 2869, 2968, 2967
2575, 2869, 2870, 2969, 2968
2576, 2870, 2871, 2970, 2969
2577, 2871, 2872, 2971, 2970
2578, 2872, 2873, 2972, 2971
2579, 2873, 2874, 2973, 2972
2580, 2874, 2875, 2974, 2973
2581, 2875, 2876, 2975, 2974
2582, 2876, 2877, 2976, 2975
2583, 2877, 2878, 2977, 2976
2584, 2878, 2879, 2978, 2977
2585, 2879, 2880, 2979, 2978
2586, 2880, 2881, 2980, 2979
2587, 2881, 2882, 2981, 2980
2588, 2882, 2883, 2982, 2981
2589, 2883, 2884, 2983, 2982
2590, 2884, 2885, 2984, 2983
2591, 2885, 2886, 2985, 2984
2592, 2886, 2887, 2986, 2985
2593, 2887, 2888, 2987, 2986
2594, 2888, 2889, 2988, 2987
2595, 2889, 2890, 2989, 2988
2596, 2890, 2891, 2990, 2989
2597, 2891, 2892, 2991, 2990
2598, 2892, 2893, 2992, 2991
2599, 2893, 2894, 2993, 2992
2600, 2894,  249,  250, 2993
2601,  376, 2895, 2994,  375
2602, 2895, 2896, 2995, 2994
2603, 2896, 2897, 2996, 2995
2604, 2897, 2898, 2997, 2996
2605, 2898, 2899, 2998, 2997
2606, 2899, 2900, 2999, 2998
2607, 2900, 2901, 3000, 2999
2608, 2901, 2902, 3001, 3000
2609, 2902, 2903, 3002, 3001
2610, 2903, 2904, 3003, 3002
2611, 2904, 2905, 3004, 3003
2612, 2905, 2906, 3005, 3004
2613, 2906, 2907, 3006, 3005
2614, 2907, 2908, 3007, 3006
2615, 2908, 2909, 3008, 3007
2616, 2909, 2910, 3009, 3008
2617, 2910, 2911, 3010, 3009
2618, 2911, 2912, 3011, 3010
2619, 2912, 2913, 3012, 3011
2620, 2913, 2914, 3013, 3012
2621, 2914, 2915, 3014, 3013
2622, 2915, 2916, 3015, 3014
2623, 2916, 2917, 3016, 3015
2624, 2917, 2918, 3017, 3016
2625, 2918, 2919, 3018, 3017
2626, 2919, 2920, 3019, 3018
2627, 2920, 2921, 3020, 3019
2628, 2921, 2922, 3021, 3020
2629, 2922, 2923, 3022, 3021
2630, 2923, 2924, 3023, 3022
2631, 2924, 2925, 3024, 3023
2632, 2925, 2926, 3025, 3024
2633, 2926, 2927, 3026, 3025
2634, 2927, 2928, 3027, 3026
2635, 2928, 2929, 3028, 3027
2636, 2929, 2930, 3029, 3028
2637, 2930, 2931, 3030, 3029
2638, 2931, 2932, 3031, 3030
2639, 2932, 2933, 3032, 3031
2640, 2933, 2934, 3033, 3032
2641, 2934, 2935, 3034, 3033
2642, 2935, 2936, 3035, 3034
2643, 2936, 2937, 3036, 3035
2644, 2937, 2938, 3037, 3036
2645, 2938, 2939, 3038, 3037
2646, 2939, 2940, 3039, 3038
2647, 2940, 2941, 3040, 3039
2648, 2941, 2942, 3041, 3040
2649, 2942, 2943, 3042, 3041
2650, 2943, 2944, 3043, 3042
2651, 2944, 2945, 3044, 3043
2652, 2945, 2946, 3045, 3044
2653, 2946, 2947, 3046, 3045
2654, 2947, 2948, 3047, 3046
2655, 2948, 2949, 3048, 3047
2656, 2949, 2950, 3049, 3048
2657, 2950, 2951, 3050, 3049
2658, 2951, 2952, 3051, 3050
2659, 2952, 2953, 3052, 3051
2660, 2953, 2954, 3053, 3052
2661, 2954, 2955, 3054, 3053
2662, 2955, 2956, 3055, 3054
2663, 2956, 2957, 3056, 3055
2664, 2957, 2958, 3057, 3056
2665, 2958, 2959, 3058, 3057
2666, 2959, 2960, 3059, 3058
2667, 2960, 2961, 3060, 3059
2668, 2961, 2962, 3061, 3060
2669, 2962, 2963, 3062, 3061
2670, 2963, 2964, 3063, 3062
2671, 2964, 2965, 3064, 3063
2672, 2965, 2966, 3065, 3064
2673, 2966, 2967, 3066, 3065
2674, 2967, 2968, 3067, 3066
2675, 2968, 2969, 3068, 3067
2676, 2969, 2970, 3069, 3068
2677, 2970, 2971, 3070, 3069
2678, 2971, 2972, 3071, 3070
2679, 2972, 2973, 3072, 3071
2680, 2973, 2974, 3073, 3072
2681, 2974, 2975, 3074, 3073
2682, 2975, 2976, 3075, 3074
2683, 2976, 2977, 3076, 3075
2684, 2977, 2978, 3077, 3076
2685, 2978, 2979, 3078, 3077
2686, 2979, 2980, 3079, 3078
2687, 2980, 2981, 3080, 3079
2688, 2981, 2982, 3081, 3080
2689, 2982, 2983, 3082, 3081
2690, 2983, 2984, 3083, 3082
2691, 2984, 2985, 3084, 3083
2692, 2985, 2986, 3085, 3084
2693, 2986, 2987, 3086, 3085
2694, 2987, 2988, 3087, 3086
2695, 2988, 2989, 3088, 3087
2696, 2989, 2990, 3089, 3088
2697, 2990, 2991, 3090, 3089
2698, 2991, 2992, 3091, 3090
2699, 2992, 2993, 3092, 3091
2700, 2993,  250,  251, 3092
2701,  375, 2994, 3093,  374
2702, 2994, 2995, 3094, 3093
2703, 2995, 2996, 3095, 3094
2704, 2996, 2997, 3096, 3095
2705, 2997, 2998, 3097, 3096
2706, 2998, 2999, 3098, 3097
2707, 2999, 3000, 3099, 3098
2708, 3000, 3001, 3100, 3099
2709, 3001, 3002, 3101, 3100
2710, 3002, 3003, 3102, 3101
2711, 3003, 3004, 3103, 3102
2712, 3004, 3005, 3104, 3103
2713, 3005, 3006, 3105, 3104
2714, 3006, 3007, 3106, 3105
2715, 3007, 3008, 3107, 3106
2716, 3008, 3009, 3108, 3107
2717, 3009, 3010, 3109, 3108
2718, 3010, 3011, 3110, 3109
2719, 3011, 3012, 3111, 3110
2720, 3012, 3013, 3112, 3111
2721, 3013, 3014, 3113, 3112
2722, 3014, 3015, 3114, 3113
2723, 3015, 3016, 3115, 3114
2724, 3016, 3017, 3116, 3115
2725, 3017, 3018, 3117, 3116
2726, 3018, 3019, 3118, 3117
2727, 3019, 3020, 3119, 3118
2728, 3020, 3021, 3120, 3119
2729, 3021, 3022, 3121, 3120
2730, 3022, 3023, 3122, 3121
2731, 3023, 3024, 3123, 3122
2732, 3024, 3025, 3124, 3123
2733, 3025, 3026, 3125, 3124
2734, 3026, 3027, 3126, 3125
2735, 3027, 3028, 3127, 3126
2736, 3028, 3029, 3128, 3127
2737, 3029, 3030, 3129, 3128
2738, 3030, 3031, 3130, 3129
2739, 3031, 3032, 3131, 3130
2740, 3032, 3033, 3132, 3131
2741, 3033, 3034, 3133, 3132
2742, 3034, 3035, 3134, 3133
2743, 3035, 3036, 3135, 3134
2744, 3036, 3037, 3136, 3135
2745, 3037, 3038, 3137, 3136
2746, 3038, 3039, 3138, 3137
2747, 3039, 3040, 3139, 3138
2748, 3040, 3041, 3140, 3139
2749, 3041, 3042, 3141, 3140
2750, 3042, 3043, 3142, 3141
2751, 3043, 3044, 3143, 3142
2752, 3044, 3045, 3144, 3143
2753, 3045, 3046, 3145, 3144
2754, 3046, 3047, 3146, 3145
2755, 3047, 3048, 3147, 3146
2756, 3048, 3049, 3148, 3147
2757, 3049, 3050, 3149, 3148
2758, 3050, 3051, 3150, 3149
2759, 3051, 3052, 3151, 3150
2760, 3052, 3053, 3152, 3151
2761, 3053, 3054, 3153, 3152
2762, 3054, 3055, 3154, 3153
2763, 3055, 3056, 3155, 3154
2764, 3056, 3057, 3156, 3155
2765, 3057, 3058, 3157, 3156
2766, 3058, 3059, 3158, 3157
2767, 3059, 3060, 3159, 3158
2768, 3060, 3061, 3160, 3159
2769, 3061, 3062, 3161, 3160
2770, 3062, 3063, 3162, 3161
2771, 3063, 3064, 3163, 3162
2772, 3064, 3065, 3164, 3163
2773, 3065, 3066, 3165, 3164
2774, 3066, 3067, 3166, 3165
2775, 3067, 3068, 3167, 3166
2776, 3068, 3069, 3168, 3167
2777, 3069, 3070, 3169, 3168
2778, 3070, 3071, 3170, 3169
2779, 3071, 3072, 3171, 3170
2780, 3072, 3073, 3172, 3171
2781, 3073, 3074, 3173, 3172
2782, 3074, 3075, 3174, 3173
2783, 3075, 3076, 3175, 3174
2784, 3076, 3077, 3176, 3175
2785, 3077, 3078, 3177, 3176
2786, 3078, 3079, 3178, 3177
2787, 3079, 3080, 3179, 3178
2788, 3080, 3081, 3180, 3179
2789, 3081, 3082, 3181, 3180
2790, 3082, 3083, 3182, 3181
2791, 3083, 3084, 3183, 3182
2792, 3084, 3085, 3184, 3183
2793, 3085, 3086, 3185, 3184
2794, 3086, 3087, 3186, 3185
2795, 3087, 3088, 3187, 3186
2796, 3088, 3089, 3188, 3187
2797, 3089, 3090, 3189, 3188
2798, 3090, 3091, 3190, 3189
2799, 3091, 3092, 3191, 3190
2800, 3092,  251,  252, 3191
2801,  374, 3093, 3192,  373
2802, 3093, 3094, 3193, 3192
2803, 3094, 3095, 3194, 3193
2804, 3095, 3096, 3195, 3194
2805, 3096, 3097, 3196, 3195
2806, 3097, 3098, 3197, 3196
2807, 3098, 3099, 3198, 3197
2808, 3099, 3100, 3199, 3198
2809, 3100, 3101, 3200, 3199
2810, 3101, 3102, 3201, 3200
2811, 3102, 3103, 3202, 3201
2812, 3103, 3104, 3203, 3202
2813, 3104, 3105, 3204, 3203
2814, 3105, 3106, 3205, 3204
2815, 3106, 3107, 3206, 3205
2816, 3107, 3108, 3207, 3206
2817, 3108, 3109, 3208, 3207
2818, 3109, 3110, 3209, 3208
2819, 3110, 3111, 3210, 3209
2820, 3111, 3112, 3211, 3210
2821, 3112, 3113, 3212, 3211
2822, 3113, 3114, 3213, 3212
2823, 3114, 3115, 3214, 3213
2824, 3115, 3116, 3215, 3214
2825, 3116, 3117, 3216, 3215
2826, 3117, 3118, 3217, 3216
2827, 3118, 3119, 3218, 3217
2828, 3119, 3120, 3219, 3218
2829, 3120, 3121, 3220, 3219
2830, 3121, 3122, 3221, 3220
2831, 3122, 3123, 3222, 3221
2832, 3123, 3124, 3223, 3222
2833, 3124, 3125, 3224, 3223
2834, 3125, 3126, 3225, 3224
2835, 3126, 3127, 3226, 3225
2836, 3127, 3128, 3227, 3226
2837, 3128, 3129, 3228, 3227
2838, 3129, 3130, 3229, 3228
2839, 3130, 3131, 3230, 3229
2840, 3131, 3132, 3231, 3230
2841, 3132, 3133, 3232, 3231
2842, 3133, 3134, 3233, 3232
2843, 3134, 3135, 3234, 3233
2844, 3135, 3136, 3235, 3234
2845, 3136, 3137, 3236, 3235
2846, 3137, 3138, 3237, 3236
2847, 3138, 3139, 3238, 3237
2848, 3139, 3140, 3239, 3238
2849, 3140, 3141, 3240, 3239
2850, 3141, 3142, 3241, 3240
2851, 3142, 3143, 3242, 3241
2852, 3143, 3144, 3243, 3242
2853, 3144, 3145, 3244, 3243
2854, 3145, 3146, 3245, 3244
2855, 3146, 3147, 3246, 3245
2856, 3147, 3148, 3247, 3246
2857, 3148, 3149, 3248, 3247
2858, 3149, 3150, 3249, 3248
2859, 3150, 3151, 3250, 3249
2860, 3151, 3152, 3251, 3250
2861, 3152, 3153, 3252, 3251
2862, 3153, 3154, 3253, 3252
2863, 3154, 3155, 3254, 3253
2864, 3155, 3156, 3255, 3254
2865, 3156, 3157, 3256, 3255
2866, 3157, 3158, 3257, 3256
2867, 3158, 3159, 3258, 3257
2868, 3159, 3160, 3259, 3258
2869, 3160, 3161, 3260, 3259
2870, 3161, 3162, 3261, 3260
2871, 3162, 3163, 3262, 3261
2872, 3163, 3164, 3263, 3262
2873, 3164, 3165, 3264, 3263
2874, 3165, 3166, 3265, 3264
2875, 3166, 3167, 3266, 3265
2876, 3167, 3168, 3267, 3266
2877, 3168, 3169, 3268, 3267
2878, 3169, 3170, 3269, 3268
2879, 3170, 3171, 3270, 3269
2880, 3171, 3172, 3271, 3270
2881, 3172, 3173, 3272, 3271
2882, 3173, 3174, 3273, 3272
2883, 3174, 3175, 3274, 3273
2884, 3175, 3176, 3275, 3274
2885, 3176, 3177, 3276, 3275
2886, 3177, 3178, 3277, 3276
2887, 3178, 3179, 3278, 3277
2888, 3179, 3180, 3279, 3278
2889, 3180, 3181, 3280, 3279
2890, 3181, 3182, 3281, 3280
2891, 3182, 3183, 3282, 3281
2892, 3183, 3184, 3283, 3282
2893, 3184, 3185, 3284, 3283
2894, 3185, 3186, 3285, 3284
2895, 3186, 3187, 3286, 3285
2896, 3187, 3188, 3287, 3286
2897, 3188, 3189, 3288, 3287
2898, 3189, 3190, 3289, 3288
2899, 3190, 3191, 3290, 3289
2900, 3191,  252,  253, 3290
2901,  373, 3192, 3291,  372
2902, 3192, 3193, 3292, 3291
2903, 3193, 3194, 3293, 3292
2904, 3194, 3195, 3294, 3293
2905, 3195, 3196, 3295, 3294
2906, 3196, 3197, 3296, 3295
2907, 3197, 3198, 3297, 3296
2908, 3198, 3199, 3298, 3297
2909, 3199, 3200, 3299, 3298
2910, 3200, 3201, 3300, 3299
2911, 3201, 3202, 3301, 3300
2912, 3202, 3203, 3302, 3301
2913, 3203, 3204, 3303, 3302
2914, 3204, 3205, 3304, 3303
2915, 3205, 3206, 3305, 3304
2916, 3206, 3207, 3306, 3305
2917, 3207, 3208, 3307, 3306
2918, 3208, 3209, 3308, 3307
2919, 3209, 3210, 3309, 3308
2920, 3210, 3211, 3310, 3309
2921, 3211, 3212, 3311, 3310
2922, 3212, 3213, 3312, 3311
2923, 3213, 3214, 3313, 3312
2924, 3214, 3215, 3314, 3313
2925, 3215, 3216, 3315, 3314
2926, 3216, 3217, 3316, 3315
2927, 3217, 3218, 3317, 3316
2928, 3218, 3219, 3318, 3317
2929, 3219, 3220, 3319, 3318
2930, 3220, 3221, 3320, 3319
2931, 3221, 3222, 3321, 3320
2932, 3222, 3223, 3322, 3321
2933, 3223, 3224, 3323, 3322
2934, 3224, 3225, 3324, 3323
2935, 3225, 3226, 3325, 3324
2936, 3226, 3227, 3326, 3325
2937, 3227, 3228, 3327, 3326
2938, 3228, 3229, 3328, 3327
2939, 3229, 3230, 3329, 3328
2940, 3230, 3231, 3330, 3329
2941, 3231, 3232, 3331, 3330
2942, 3232, 3233, 3332, 3331
2943, 3233, 3234, 3333, 3332
2944, 3234, 3235, 3334, 3333
2945, 3235, 3236, 3335, 3334
2946, 3236, 3237, 3336, 3335
2947, 3237, 3238, 3337, 3336
2948, 3238, 3239, 3338, 3337
2949, 3239, 3240, 3339, 3338
2950, 3240, 3241, 3340, 3339
2951, 3241, 3242, 3341, 3340
2952, 3242, 3243, 3342, 3341
2953, 3243, 3244, 3343, 3342
2954, 3244, 3245, 3344, 3343
2955, 3245, 3246, 3345, 3344
2956, 3246, 3247, 3346, 3345
2957, 3247, 3248, 3347, 3346
2958, 3248, 3249, 3348, 3347
2959, 3249, 3250, 3349, 3348
2960, 3250, 3251, 3350, 3349
2961, 3251, 3252, 3351, 3350
2962, 3252, 3253, 3352, 3351
2963, 3253, 3254, 3353, 3352
2964, 3254, 3255, 3354, 3353
2965, 3255, 3256, 3355, 3354
2966, 3256, 3257, 3356, 3355
2967, 3257, 3258, 3357, 3356
2968, 3258, 3259, 3358, 3357
2969, 3259, 3260, 3359, 3358
2970, 3260, 3261, 3360, 3359
2971, 3261, 3262, 3361, 3360
2972, 3262, 3263, 3362, 3361
2973, 3263, 3264, 3363, 3362
2974, 3264, 3265, 3364, 3363
2975, 3265, 3266, 3365, 3364
2976, 3266, 3267, 3366, 3365
2977, 3267, 3268, 3367, 3366
2978, 3268, 3269, 3368, 3367
2979, 3269, 3270, 3369, 3368
2980, 3270, 3271, 3370, 3369
2981, 3271, 3272, 3371, 3370
2982, 3272, 3273, 3372, 3371
2983, 3273, 3274, 3373, 3372
2984, 3274, 3275, 3374, 3373
2985, 3275, 3276, 3375, 3374
2986, 3276, 3277, 3376, 3375
2987, 3277, 3278, 3377, 3376
2988, 3278, 3279, 3378, 3377
2989, 3279, 3280, 3379, 3378
2990, 3280, 3281, 3380, 3379
2991, 3281, 3282, 3381, 3380
2992, 3282, 3283, 3382, 3381
2993, 3283, 3284, 3383, 3382
2994, 3284, 3285, 3384, 3383
2995, 3285, 3286, 3385, 3384
2996, 3286, 3287, 3386, 3385
2997, 3287, 3288, 3387, 3386
2998, 3288, 3289, 3388, 3387
2999, 3289, 3290, 3389, 3388
3000, 3290,  253,  254, 3389
3001,  372, 3291, 3390,  371
3002, 3291, 3292, 3391, 3390
3003, 3292, 3293, 3392, 3391
3004, 3293, 3294, 3393, 3392
3005, 3294, 3295, 3394, 3393
3006, 3295, 3296, 3395, 3394
3007, 3296, 3297, 3396, 3395
3008, 3297, 3298, 3397, 3396
3009, 3298, 3299, 3398, 3397
3010, 3299, 3300, 3399, 3398
3011, 3300, 3301, 3400, 3399
3012, 3301, 3302, 3401, 3400
3013, 3302, 3303, 3402, 3401
3014, 3303, 3304, 3403, 3402
3015, 3304, 3305, 3404, 3403
3016, 3305, 3306, 3405, 3404
3017, 3306, 3307, 3406, 3405
3018, 3307, 3308, 3407, 3406
3019, 3308, 3309, 3408, 3407
3020, 3309, 3310, 3409, 3408
3021, 3310, 3311, 3410, 3409
3022, 3311, 3312, 3411, 3410
3023, 3312, 3313, 3412, 3411
3024, 3313, 3314, 3413, 3412
3025, 3314, 3315, 3414, 3413
3026, 3315, 3316, 3415, 3414
3027, 3316, 3317, 3416, 3415
3028, 3317, 3318, 3417, 3416
3029, 3318, 3319, 3418, 3417
3030, 3319, 3320, 3419, 3418
3031, 3320, 3321, 3420, 3419
3032, 3321, 3322, 3421, 3420
3033, 3322, 3323, 3422, 3421
3034, 3323, 3324, 3423, 3422
3035, 3324, 3325, 3424, 3423
3036, 3325, 3326, 3425, 3424
3037, 3326, 3327, 3426, 3425
3038, 3327, 3328, 3427, 3426
3039, 3328, 3329, 3428, 3427
3040, 3329, 3330, 3429, 3428
3041, 3330, 3331, 3430, 3429
3042, 3331, 3332, 3431, 3430
3043, 3332, 3333, 3432, 3431
3044, 3333, 3334, 3433, 3432
3045, 3334, 3335, 3434, 3433
3046, 3335, 3336, 3435, 3434
3047, 3336, 3337, 3436, 3435
3048, 3337, 3338, 3437, 3436
3049, 3338, 3339, 3438, 3437
3050, 3339, 3340, 3439, 3438
3051, 3340, 3341, 3440, 3439
3052, 3341, 3342, 3441, 3440
3053, 3342, 3343, 3442, 3441
3054, 3343, 3344, 3443, 3442
3055, 3344, 3345, 3444, 3443
3056, 3345, 3346, 3445, 3444
3057, 3346, 3347, 3446, 3445
3058, 3347, 3348, 3447, 3446
3059, 3348, 3349, 3448, 3447
3060, 3349, 3350, 3449, 3448
3061, 3350, 3351, 3450, 3449
3062, 3351, 3352, 3451, 3450
3063, 3352, 3353, 3452, 3451
3064, 3353, 3354, 3453, 3452
3065, 3354, 3355, 3454, 3453
3066, 3355, 3356, 3455, 3454
3067, 3356, 3357, 3456, 3455
3068, 3357, 3358, 3457, 3456
3069, 3358, 3359, 3458, 3457
3070, 3359, 3360, 3459, 3458
3071, 3360, 3361, 3460, 3459
3072, 3361, 3362, 3461, 3460
3073, 3362, 3363, 3462, 3461
3074, 3363, 3364, 3463, 3462
3075, 3364, 3365, 3464, 3463
3076, 3365, 3366, 3465, 3464
3077, 3366, 3367, 3466, 3465
3078, 3367, 3368, 3467, 3466
3079, 3368, 3369, 3468, 3467
3080, 3369, 3370, 3469, 3468
3081, 3370, 3371, 3470, 3469
3082, 3371, 3372, 3471, 3470
3083, 3372, 3373, 3472, 3471
3084, 3373, 3374, 3473, 3472
3085, 3374, 3375, 3474, 3473
3086, 3375, 3376, 3475, 3474
3087, 3376, 3377, 3476, 3475
3088, 3377, 3378, 3477, 3476
3089, 3378, 3379, 3478, 3477
3090, 3379, 3380, 3479, 3478
3091, 3380, 3381, 3480, 3479
3092, 3381, 3382, 3481, 3480
3093, 3382, 3383, 3482, 3481
3094, 3383, 3384, 3483, 3482
3095, 3384, 3385, 3484, 3483
3096, 3385, 3386, 3485, 3484
3097, 3386, 3387, 3486, 3485
3098, 3387, 3388, 3487, 3486
3099, 3388, 3389, 3488, 3487
3100, 3389,  254,  255, 3488
3101,  371, 3390, 3489,  370
3102, 3390, 3391, 3490, 3489
3103, 3391, 3392, 3491, 3490
3104, 3392, 3393, 3492, 3491
3105, 3393, 3394, 3493, 3492
3106, 3394, 3395, 3494, 3493
3107, 3395, 3396, 3495, 3494
3108, 3396, 3397, 3496, 3495
3109, 3397, 3398, 3497, 3496
3110, 3398, 3399, 3498, 3497
3111, 3399, 3400, 3499, 3498
3112, 3400, 3401, 3500, 3499
3113, 3401, 3402, 3501, 3500
3114, 3402, 3403, 3502, 3501
3115, 3403, 3404, 3503, 3502
3116, 3404, 3405, 3504, 3503
3117, 3405, 3406, 3505, 3504
3118, 3406, 3407, 3506, 3505
3119, 3407, 3408, 3507, 3506
3120, 3408, 3409, 3508, 3507
3121, 3409, 3410, 3509, 3508
3122, 3410, 3411, 3510, 3509
3123, 3411, 3412, 3511, 3510
3124, 3412, 3413, 3512, 3511
3125, 3413, 3414, 3513, 3512
3126, 3414, 3415, 3514, 3513
3127, 3415, 3416, 3515, 3514
3128, 3416, 3417, 3516, 3515
3129, 3417, 3418, 3517, 3516
3130, 3418, 3419, 3518, 3517
3131, 3419, 3420, 3519, 3518
3132, 3420, 3421, 3520, 3519
3133, 3421, 3422, 3521, 3520
3134, 3422, 3423, 3522, 3521
3135, 3423, 3424, 3523, 3522
3136, 3424, 3425, 3524, 3523
3137, 3425, 3426, 3525, 3524
3138, 3426, 3427, 3526, 3525
3139, 3427, 3428, 3527, 3526
3140, 3428, 3429, 3528, 3527
3141, 3429, 3430, 3529, 3528
3142, 3430, 3431, 3530, 3529
3143, 3431, 3432, 3531, 3530
3144, 3432, 3433, 3532, 3531
3145, 3433, 3434, 3533, 3532
3146, 3434, 3435, 3534, 3533
3147, 3435, 3436, 3535, 3534
3148, 3436, 3437, 3536, 3535
3149, 3437, 3438, 3537, 3536
3150, 3438, 3439, 3538, 3537
3151, 3439, 3440, 3539, 3538
3152, 3440, 3441, 3540, 3539
3153, 3441, 3442, 3541, 3540
3154, 3442, 3443, 3542, 3541
3155, 3443, 3444, 3543, 3542
3156, 3444, 3445, 3544, 3543
3157, 3445, 3446, 3545, 3544
3158, 3446, 3447, 3546, 3545
3159, 3447, 3448, 3547, 3546
3160, 3448, 3449, 3548, 3547
3161, 3449, 3450, 3549, 3548
3162, 3450, 3451, 3550, 3549
3163, 3451, 3452, 3551, 3550
3164, 3452, 3453, 3552, 3551
3165, 3453, 3454, 3553, 3552
3166, 3454, 3455, 3554, 3553
3167, 3455, 3456, 3555, 3554
3168, 3456, 3457, 3556, 3555
3169, 3457, 3458, 3557, 3556
3170, 3458, 3459, 3558, 3557
3171, 3459, 3460, 3559, 3558
3172, 3460, 3461, 3560, 3559
3173, 3461, 3462, 3561, 3560
3174, 3462, 3463, 3562, 3561
3175, 3463, 3464, 3563, 3562
3176, 3464, 3465, 3564, 3563
3177, 3465, 3466, 3565, 3564
3178, 3466, 3467, 3566, 3565
3179, 3467, 3468, 3567, 3566
3180, 3468, 3469, 3568, 3567
3181, 3469, 3470, 3569, 3568
3182, 3470, 3471, 3570, 3569
3183, 3471, 3472, 3571, 3570
3184, 3472, 3473, 3572, 3571
3185, 3473, 3474, 3573, 3572
3186, 3474, 3475, 3574, 3573
3187, 3475, 3476, 3575, 3574
3188, 3476, 3477, 3576, 3575
3189, 3477, 3478, 3577, 3576
3190, 3478, 3479, 3578, 3577
3191, 3479, 3480, 3579, 3578
3192, 3480, 3481, 3580, 3579
3193, 3481, 3482, 3581, 3580
3194, 3482, 3483, 3582, 3581
3195, 3483, 3484, 3583, 3582
3196, 3484, 3485, 3584, 3583
3197, 3485, 3486, 3585, 3584
3198, 3486, 3487, 3586, 3585
3199, 3487, 3488, 3587, 3586
3200, 3488,  255,  256, 3587
3201,  370, 3489, 3588,  369
3202, 3489, 3490, 3589, 3588
3203, 3490, 3491, 3590, 3589
3204, 3491, 3492, 3591, 3590
3205, 3492, 3493, 3592, 3591
3206, 3493, 3494, 3593, 3592
3207, 3494, 3495, 3594, 3593
3208, 3495, 3496, 3595, 3594
3209, 3496, 3497, 3596, 3595
3210, 3497, 3498, 3597, 3596
3211, 3498, 3499, 3598, 3597
3212, 3499, 3500, 3599, 3598
3213, 3500, 3501, 3600, 3599
3214, 3501, 3502, 3601, 3600
3215, 3502, 3503, 3602, 3601
3216, 3503, 3504, 3603, 3602
3217, 3504, 3505, 3604, 3603
3218, 3505, 3506, 3605, 3604
3219, 3506, 3507, 3606, 3605
3220, 3507, 3508, 3607, 3606
3221, 3508, 3509, 3608, 3607
3222, 3509, 3510, 3609, 3608
3223, 3510, 3511, 3610, 3609
3224, 3511, 3512, 3611, 3610
3225, 3512, 3513, 3612, 3611
3226, 3513, 3514, 3613, 3612
3227, 3514, 3515, 3614, 3613
3228, 3515, 3516, 3615, 3614
3229, 3516, 3517, 3616, 3615
3230, 3517, 3518, 3617, 3616
3231, 3518, 3519, 3618, 3617
3232, 3519, 3520, 3619, 3618
3233, 3520, 3521, 3620, 3619
3234, 3521, 3522, 3621, 3620
3235, 3522, 3523, 3622, 3621
3236, 3523, 3524, 3623, 3622
3237, 3524, 3525, 3624, 3623
3238, 3525, 3526, 3625, 3624
3239, 3526, 3527, 3626, 3625
3240, 3527, 3528, 3627, 3626
3241, 3528, 3529, 3628, 3627
3242, 3529, 3530, 3629, 3628
3243, 3530, 3531, 3630, 3629
3244, 3531, 3532, 3631, 3630
3245, 3532, 3533, 3632, 3631
3246, 3533, 3534, 3633, 3632
3247, 3534, 3535, 3634, 3633
3248, 3535, 3536, 3635, 3634
3249, 3536, 3537, 3636, 3635
3250, 3537, 3538, 3637, 3636
3251, 3538, 3539, 3638, 3637
3252, 3539, 3540, 3639, 3638
3253, 3540, 3541, 3640, 3639
3254, 3541, 3542, 3641, 3640
3255, 3542, 3543, 3642, 3641
3256, 3543, 3544, 3643, 3642
3257, 3544, 3545, 3644, 3643
3258, 3545, 3546, 3645, 3644
3259, 3546, 3547, 3646, 3645
3260, 3547, 3548, 3647, 3646
3261, 3548, 3549, 3648, 3647
3262, 3549, 3550, 3649, 3648
3263, 3550, 3551, 3650, 3649
3264, 3551, 3552, 3651, 3650
3265, 3552, 3553, 3652, 3651
3266, 3553, 3554, 3653, 3652
3267, 3554, 3555, 3654, 3653
3268, 3555, 3556, 3655, 3654
3269, 3556, 3557, 3656, 3655
3270, 3557, 3558, 3657, 3656
3271, 3558, 3559, 3658, 3657
3272, 3559, 3560, 3659, 3658
3273, 3560, 3561, 3660, 3659
3274, 3561, 3562, 3661, 3660
3275, 3562, 3563, 3662, 3661
3276, 3563, 3564, 3663, 3662
3277, 3564, 3565, 3664, 3663
3278, 3565, 3566, 3665, 3664
3279, 3566, 3567, 3666, 3665
3280, 3567, 3568, 3667, 3666
3281, 3568, 3569, 3668, 3667
3282, 3569, 3570, 3669, 3668
3283, 3570, 3571, 3670, 3669
3284, 3571, 3572, 3671, 3670
3285, 3572, 3573, 3672, 3671
3286, 3573, 3574, 3673, 3672
3287, 3574, 3575, 3674, 3673
3288, 3575, 3576, 3675, 3674
3289, 3576, 3577, 3676, 3675
3290, 3577, 3578, 3677, 3676
3291, 3578, 3579, 3678, 3677
3292, 3579, 3580, 3679, 3678
3293, 3580, 3581, 3680, 3679
3294, 3581, 3582, 3681, 3680
3295, 3582, 3583, 3682, 3681
3296, 3583, 3584, 3683, 3682
3297, 3584, 3585, 3684, 3683
3298, 3585, 3586, 3685, 3684
3299, 3586, 3587, 3686, 3685
3300, 3587,  256,  257, 3686
3301,  369, 3588, 3687,  368
3302, 3588, 3589, 3688, 3687
3303, 3589, 3590, 3689, 3688
3304, 3590, 3591, 3690, 3689
3305, 3591, 3592, 3691, 3690
3306, 3592, 3593, 3692, 3691
3307, 3593, 3594, 3693, 3692
3308, 3594, 3595, 3694, 3693
3309, 3595, 3596, 3695, 3694
3310, 3596, 3597, 3696, 3695
3311, 3597, 3598, 3697, 3696
3312, 3598, 3599, 3698, 3697
3313, 3599, 3600, 3699, 3698
3314, 3600, 3601, 3700, 3699
3315, 3601, 3602, 3701, 3700
3316, 3602, 3603, 3702, 3701
3317, 3603, 3604, 3703, 3702
3318, 3604, 3605, 3704, 3703
3319, 3605, 3606, 3705, 3704
3320, 3606, 3607, 3706, 3705
3321, 3607, 3608, 3707, 3706
3322, 3608, 3609, 3708, 3707
3323, 3609, 3610, 3709, 3708
3324, 3610, 3611, 3710, 3709
3325, 3611, 3612, 3711, 3710
3326, 3612, 3613, 3712, 3711
3327, 3613, 3614, 3713, 3712
3328, 3614, 3615, 3714, 3713
3329, 3615, 3616, 3715, 3714
3330, 3616, 3617, 3716, 3715
3331, 3617, 3618, 3717, 3716
3332, 3618, 3619, 3718, 3717
3333, 3619, 3620, 3719, 3718
3334, 3620, 3621, 3720, 3719
3335, 3621, 3622, 3721, 3720
3336, 3622, 3623, 3722, 3721
3337, 3623, 3624, 3723, 3722
3338, 3624, 3625, 3724, 3723
3339, 3625, 3626, 3725, 3724
3340, 3626, 3627, 3726, 3725
3341, 3627, 3628, 3727, 3726
3342, 3628, 3629, 3728, 3727
3343, 3629, 3630, 3729, 3728
3344, 3630, 3631, 3730, 3729
3345, 3631, 3632, 3731, 3730
3346, 3632, 3633, 3732, 3731
3347, 3633, 3634, 3733, 3732
3348, 3634, 3635, 3734, 3733
3349, 3635, 3636, 3735, 3734
3350, 3636, 3637, 3736, 3735
3351, 3637, 3638, 3737, 3736
3352, 3638, 3639, 3738, 3737
3353, 3639, 3640, 3739, 3738
3354, 3640, 3641, 3740, 3739
3355, 3641, 3642, 3741, 3740
3356, 3642, 3643, 3742, 3741
3357, 3643, 3644, 3743, 3742
3358, 3644, 3645, 3744, 3743
3359, 3645, 3646, 3745, 3744
3360, 3646, 3647, 3746, 3745
3361, 3647, 3648, 3747, 3746
3362, 3648, 3649, 3748, 3747
3363, 3649, 3650, 3749, 3748
3364, 3650, 3651, 3750, 3749
3365, 3651, 3652, 3751, 3750
3366, 3652, 3653, 3752, 3751
3367, 3653, 3654, 3753, 3752
3368, 3654, 3655, 3754, 3753
3369, 3655, 3656, 3755, 3754
3370, 3656, 3657, 3756, 3755
3371, 3657, 3658, 3757, 3756
3372, 3658, 3659, 3758, 3757
3373, 3659, 3660, 3759, 3758
3374, 3660, 3661, 3760, 3759
3375, 3661, 3662, 3761, 3760
3376, 3662, 3663, 3762, 3761
3377, 3663, 3664, 3763, 3762
3378, 3664, 3665, 3764, 3763
3379, 3665, 3666, 3765, 3764
3380, 3666, 3667, 3766, 3765
3381, 3667, 3668, 3767, 3766
3382, 3668, 3669, 3768, 3767
3383, 3669, 3670, 3769, 3768
3384, 3670, 3671, 3770, 3769
3385, 3671, 3672, 3771, 3770
3386, 3672, 3673, 3772, 3771
3387, 3673, 3674, 3773, 3772
3388, 3674, 3675, 3774, 3773
3389, 3675, 3676, 3775, 3774
3390, 3676, 3677, 3776, 3775
3391, 3677, 3678, 3777, 3776
3392, 3678, 3679, 3778, 3777
3393, 3679, 3680, 3779, 3778
3394, 3680, 3681, 3780, 3779
3395, 3681, 3682, 3781, 3780
3396, 3682, 3683, 3782, 3781
3397, 3683, 3684, 3783, 3782
3398, 3684, 3685, 3784, 3783
3399, 3685, 3686, 3785, 3784
3400, 3686,  257,  258, 3785
3401,  368, 3687, 3786,  367
3402, 3687, 3688, 3787, 3786
3403, 3688, 3689, 3788, 3787
3404, 3689, 3690, 3789, 3788
3405, 3690, 3691, 3790, 3789
3406, 3691, 3692, 3791, 3790
3407, 3692, 3693, 3792, 3791
3408, 3693, 3694, 3793, 3792
3409, 3694, 3695, 3794, 3793
3410, 3695, 3696, 3795, 3794
3411, 3696, 3697, 3796, 3795
3412, 3697, 3698, 3797, 3796
3413, 3698, 3699, 3798, 3797
3414, 3699, 3700, 3799, 3798
3415, 3700, 3701, 3800, 3799
3416, 3701, 3702, 3801, 3800
3417, 3702, 3703, 3802, 3801
3418, 3703, 3704, 3803, 3802
3419, 3704, 3705, 3804, 3803
3420, 3705, 3706, 3805, 3804
3421, 3706, 3707, 3806, 3805
3422, 3707, 3708, 3807, 3806
3423, 3708, 3709, 3808, 3807
3424, 3709, 3710, 3809, 3808
3425, 3710, 3711, 3810, 3809
3426, 3711, 3712, 3811, 3810
3427, 3712, 3713, 3812, 3811
3428, 3713, 3714, 3813, 3812
3429, 3714, 3715, 3814, 3813
3430, 3715, 3716, 3815, 3814
3431, 3716, 3717, 3816, 3815
3432, 3717, 3718, 3817, 3816
3433, 3718, 3719, 3818, 3817
3434, 3719, 3720, 3819, 3818
3435, 3720, 3721, 3820, 3819
3436, 3721, 3722, 3821, 3820
3437, 3722, 3723, 3822, 3821
3438, 3723, 3724, 3823, 3822
3439, 3724, 3725, 3824, 3823
3440, 3725, 3726, 3825, 3824
3441, 3726, 3727, 3826, 3825
3442, 3727, 3728, 3827, 3826
3443, 3728, 3729, 3828, 3827
3444, 3729, 3730, 3829, 3828
3445, 3730, 3731, 3830, 3829
3446, 3731, 3732, 3831, 3830
3447, 3732, 3733, 3832, 3831
3448, 3733, 3734, 3833, 3832
3449, 3734, 3735, 3834, 3833
3450, 3735, 3736, 3835, 3834
3451, 3736, 3737, 3836, 3835
3452, 3737, 3738, 3837, 3836
3453, 3738, 3739, 3838, 3837
3454, 3739, 3740, 3839, 3838
3455, 3740, 3741, 3840, 3839
3456, 3741, 3742, 3841, 3840
3457, 3742, 3743, 3842, 3841
3458, 3743, 3744, 3843, 3842
3459, 3744, 3745, 3844, 3843
3460, 3745, 3746, 3845, 3844
3461, 3746, 3747, 3846, 3845
3462, 3747, 3748, 3847, 3846
3463, 3748, 3749, 3848, 3847
3464, 3749, 3750, 3849, 3848
3465, 3750, 3751, 3850, 3849
3466, 3751, 3752, 3851, 3850
3467, 3752, 3753, 3852, 3851
3468, 3753, 3754, 3853, 3852
3469, 3754, 3755, 3854, 3853
3470, 3755, 3756, 3855, 3854
3471, 3756, 3757, 3856, 3855
3472, 3757, 3758, 3857, 3856
3473, 3758, 3759, 3858, 3857
3474, 3759, 3760, 3859, 3858
3475, 3760, 3761, 3860, 3859
3476, 3761, 3762, 3861, 3860
3477, 3762, 3763, 3862, 3861
3478, 3763, 3764, 3863, 3862
3479, 3764, 3765, 3864, 3863
3480, 3765, 3766, 3865, 3864
3481, 3766, 3767, 3866, 3865
3482, 3767, 3768, 3867, 3866
3483, 3768, 3769, 3868, 3867
3484, 3769, 3770, 3869, 3868
3485, 3770, 3771, 3870, 3869
3486, 3771, 3772, 3871, 3870
3487, 3772, 3773, 3872, 3871
3488, 3773, 3774, 3873, 3872
3489, 3774, 3775, 3874, 3873
3490, 3775, 3776, 3875, 3874
3491, 3776, 3777, 3876, 3875
3492, 3777, 3778, 3877, 3876
3493, 3778, 3779, 3878, 3877
3494, 3779, 3780, 3879, 3878
3495, 3780, 3781, 3880, 3879
3496, 3781, 3782, 3881, 3880
3497, 3782, 3783, 3882, 3881
3498, 3783, 3784, 3883, 3882
3499, 3784, 3785, 3884, 3883
3500, 3785,  258,  259, 3884
3501,  367, 3786, 3885,  366
3502, 3786, 3787, 3886, 3885
3503, 3787, 3788, 3887, 3886
3504, 3788, 3789, 3888, 3887
3505, 3789, 3790, 3889, 3888
3506, 3790, 3791, 3890, 3889
3507, 3791, 3792, 3891, 3890
3508, 3792, 3793, 3892, 3891
3509, 3793, 3794, 3893, 3892
3510, 3794, 3795, 3894, 3893
3511, 3795, 3796, 3895, 3894
3512, 3796, 3797, 3896, 3895
3513, 3797, 3798, 3897, 3896
3514, 3798, 3799, 3898, 3897
3515, 3799, 3800, 3899, 3898
3516, 3800, 3801, 3900, 3899
3517, 3801, 3802, 3901, 3900
3518, 3802, 3803, 3902, 3901
3519, 3803, 3804, 3903, 3902
3520, 3804, 3805, 3904, 3903
3521, 3805, 3806, 3905, 3904
3522, 3806, 3807, 3906, 3905
3523, 3807, 3808, 3907, 3906
3524, 3808, 3809, 3908, 3907
3525, 3809, 3810, 3909, 3908
3526, 3810, 3811, 3910, 3909
3527, 3811, 3812, 3911, 3910
3528, 3812, 3813, 3912, 3911
3529, 3813, 3814, 3913, 3912
3530, 3814, 3815, 3914, 3913
3531, 3815, 3816, 3915, 3914
3532, 3816, 3817, 3916, 3915
3533, 3817, 3818, 3917, 3916
3534, 3818, 3819, 3918, 3917
3535, 3819, 3820, 3919, 3918
3536, 3820, 3821, 3920, 3919
3537, 3821, 3822, 3921, 3920
3538, 3822, 3823, 3922, 3921
3539, 3823, 3824, 3923, 3922
3540, 3824, 3825, 3924, 3923
3541, 3825, 3826, 3925, 3924
3542, 3826, 3827, 3926, 3925
3543, 3827, 3828, 3927, 3926
3544, 3828, 3829, 3928, 3927
3545, 3829, 3830, 3929, 3928
3546, 3830, 3831, 3930, 3929
3547, 3831, 3832, 3931, 3930
3548, 3832, 3833, 3932, 3931
3549, 3833, 3834, 3933, 3932
3550, 3834, 3835, 3934, 3933
3551, 3835, 3836, 3935, 3934
3552, 3836, 3837, 3936, 3935
3553, 3837, 3838, 3937, 3936
3554, 3838, 3839, 3938, 3937
3555, 3839, 3840, 3939, 3938
3556, 3840, 3841, 3940, 3939
3557, 3841, 3842, 3941, 3940
3558, 3842, 3843, 3942, 3941
3559, 3843, 3844, 3943, 3942
3560, 3844, 3845, 3944, 3943
3561, 3845, 3846, 3945, 3944
3562, 3846, 3847, 3946, 3945
3563, 3847, 3848, 3947, 3946
3564, 3848, 3849, 3948, 3947
3565, 3849, 3850, 3949, 3948
3566, 3850, 3851, 3950, 3949
3567, 3851, 3852, 3951, 3950
3568, 3852, 3853, 3952, 3951
3569, 3853, 3854, 3953, 3952
3570, 3854, 3855, 3954, 3953
3571, 3855, 3856, 3955, 3954
3572, 3856, 3857, 3956, 3955
3573, 3857, 3858, 3957, 3956
3574, 3858, 3859, 3958, 3957
3575, 3859, 3860, 3959, 3958
3576, 3860, 3861, 3960, 3959
3577, 3861, 3862, 3961, 3960
3578, 3862, 3863, 3962, 3961
3579, 3863, 3864, 3963, 3962
3580, 3864, 3865, 3964, 3963
3581, 3865, 3866, 3965, 3964
3582, 3866, 3867, 3966, 3965
3583, 3867, 3868, 3967, 3966
3584, 3868, 3869, 3968, 3967
3585, 3869, 3870, 3969, 3968
3586, 3870, 3871, 3970, 3969
3587, 3871, 3872, 3971, 3970
3588, 3872, 3873, 3972, 3971
3589, 3873, 3874, 3973, 3972
3590, 3874, 3875, 3974, 3973
3591, 3875, 3876, 3975, 3974
3592, 3876, 3877, 3976, 3975
3593, 3877, 3878, 3977, 3976
3594, 3878, 3879, 3978, 3977
3595, 3879, 3880, 3979, 3978
3596, 3880, 3881, 3980, 3979
3597, 3881, 3882, 3981, 3980
3598, 3882, 3883, 3982, 3981
3599, 3883, 3884, 3983, 3982
3600, 3884,  259,  260, 3983
3601,  366, 3885, 3984,  365
3602, 3885, 3886, 3985, 3984
3603, 3886, 3887, 3986, 3985
3604, 3887, 3888, 3987, 3986
3605, 3888, 3889, 3988, 3987
3606, 3889, 3890, 3989, 3988
3607, 3890, 3891, 3990, 3989
3608, 3891, 3892, 3991, 3990
3609, 3892, 3893, 3992, 3991
3610, 3893, 3894, 3993, 3992
3611, 3894, 3895, 3994, 3993
3612, 3895, 3896, 3995, 3994
3613, 3896, 3897, 3996, 3995
3614, 3897, 3898, 3997, 3996
3615, 3898, 3899, 3998, 3997
3616, 3899, 3900, 3999, 3998
3617, 3900, 3901, 4000, 3999
3618, 3901, 3902, 4001, 4000
3619, 3902, 3903, 4002, 4001
3620, 3903, 3904, 4003, 4002
3621, 3904, 3905, 4004, 4003
3622, 3905, 3906, 4005, 4004
3623, 3906, 3907, 4006, 4005
3624, 3907, 3908, 4007, 4006
3625, 3908, 3909, 4008, 4007
3626, 3909, 3910, 4009, 4008
3627, 3910, 3911, 4010, 4009
3628, 3911, 3912, 4011, 4010
3629, 3912, 3913, 4012, 4011
3630, 3913, 3914, 4013, 4012
3631, 3914, 3915, 4014, 4013
3632, 3915, 3916, 4015, 4014
3633, 3916, 3917, 4016, 4015
3634, 3917, 3918, 4017, 4016
3635, 3918, 3919, 4018, 4017
3636, 3919, 3920, 4019, 4018
3637, 3920, 3921, 4020, 4019
3638, 3921, 3922, 4021, 4020
3639, 3922, 3923, 4022, 4021
3640, 3923, 3924, 4023, 4022
3641, 3924, 3925, 4024, 4023
3642, 3925, 3926, 4025, 4024
3643, 3926, 3927, 4026, 4025
3644, 3927, 3928, 4027, 4026
3645, 3928, 3929, 4028, 4027
3646, 3929, 3930, 4029, 4028
3647, 3930, 3931, 4030, 4029
3648, 3931, 3932, 4031, 4030
3649, 3932, 3933, 4032, 4031
3650, 3933, 3934, 4033, 4032
3651, 3934, 3935, 4034, 4033
3652, 3935, 3936, 4035, 4034
3653, 3936, 3937, 4036, 4035
3654, 3937, 3938, 4037, 4036
3655, 3938, 3939, 4038, 4037
3656, 3939, 3940, 4039, 4038
3657, 3940, 3941, 4040, 4039
3658, 3941, 3942, 4041, 4040
3659, 3942, 3943, 4042, 4041
3660, 3943, 3944, 4043, 4042
3661, 3944, 3945, 4044, 4043
3662, 3945, 3946, 4045, 4044
3663, 3946, 3947, 4046, 4045
3664, 3947, 3948, 4047, 4046
3665, 3948, 3949, 4048, 4047
3666, 3949, 3950, 4049, 4048
3667, 3950, 3951, 4050, 4049
3668, 3951, 3952, 4051, 4050
3669, 3952, 3953, 4052, 4051
3670, 3953, 3954, 4053, 4052
3671, 3954, 3955, 4054, 4053
3672, 3955, 3956, 4055, 4054
3673, 3956, 3957, 4056, 4055
3674, 3957, 3958, 4057, 4056
3675, 3958, 3959, 4058, 4057
3676, 3959, 3960, 4059, 4058
3677, 3960, 3961, 4060, 4059
3678, 3961, 3962, 4061, 4060
3679, 3962, 3963, 4062, 4061
3680, 3963, 3964, 4063, 4062
3681, 3964, 3965, 4064, 4063
3682, 3965, 3966, 4065, 4064
3683, 3966, 3967, 4066, 4065
3684, 3967, 3968, 4067, 4066
3685, 3968, 3969, 4068, 4067
3686, 3969, 3970, 4069, 4068
3687, 3970, 3971, 4070, 4069
3688, 3971, 3972, 4071, 4070
3689, 3972, 3973, 4072, 4071
3690, 3973, 3974, 4073, 4072
3691, 3974, 3975, 4074, 4073
3692, 3975, 3976, 4075, 4074
3693, 3976, 3977, 4076, 4075
3694, 3977, 3978, 4077, 4076
3695, 3978, 3979, 4078, 4077
3696, 3979, 3980, 4079, 4078
3697, 3980, 3981, 4080, 4079
3698, 3981, 3982, 4081, 4080
3699, 3982, 3983, 4082, 4081
3700, 3983,  260,  261, 4082
3701,  365, 3984, 4083,  364
3702, 3984, 3985, 4084, 4083
3703, 3985, 3986, 4085, 4084
3704, 3986, 3987, 4086, 4085
3705, 3987, 3988, 4087, 4086
3706, 3988, 3989, 4088, 4087
3707, 3989, 3990, 4089, 4088
3708, 3990, 3991, 4090, 4089
3709, 3991, 3992, 4091, 4090
3710, 3992, 3993, 4092, 4091
3711, 3993, 3994, 4093, 4092
3712, 3994, 3995, 4094, 4093
3713, 3995, 3996, 4095, 4094
3714, 3996, 3997, 4096, 4095
3715, 3997, 3998, 4097, 4096
3716, 3998, 3999, 4098, 4097
3717, 3999, 4000, 4099, 4098
3718, 4000, 4001, 4100, 4099
3719, 4001, 4002, 4101, 4100
3720, 4002, 4003, 4102, 4101
3721, 4003, 4004, 4103, 4102
3722, 4004, 4005, 4104, 4103
3723, 4005, 4006, 4105, 4104
3724, 4006, 4007, 4106, 4105
3725, 4007, 4008, 4107, 4106
3726, 4008, 4009, 4108, 4107
3727, 4009, 4010, 4109, 4108
3728, 4010, 4011, 4110, 4109
3729, 4011, 4012, 4111, 4110
3730, 4012, 4013, 4112, 4111
3731, 4013, 4014, 4113, 4112
3732, 4014, 4015, 4114, 4113
3733, 4015, 4016, 4115, 4114
3734, 4016, 4017, 4116, 4115
3735, 4017, 4018, 4117, 4116
3736, 4018, 4019, 4118, 4117
3737, 4019, 4020, 4119, 4118
3738, 4020, 4021, 4120, 4119
3739, 4021, 4022, 4121, 4120
3740, 4022, 4023, 4122, 4121
3741, 4023, 4024, 4123, 4122
3742, 4024, 4025, 4124, 4123
3743, 4025, 4026, 4125, 4124
3744, 4026, 4027, 4126, 4125
3745, 4027, 4028, 4127, 4126
3746, 4028, 4029, 4128, 4127
3747, 4029, 4030, 4129, 4128
3748, 4030, 4031, 4130, 4129
3749, 4031, 4032, 4131, 4130
3750, 4032, 4033, 4132, 4131
3751, 4033, 4034, 4133, 4132
3752, 4034, 4035, 4134, 4133
3753, 4035, 4036, 4135, 4134
3754, 4036, 4037, 4136, 4135
3755, 4037, 4038, 4137, 4136
3756, 4038, 4039, 4138, 4137
3757, 4039, 4040, 4139, 4138
3758, 4040, 4041, 4140, 4139
3759, 4041, 4042, 4141, 4140
3760, 4042, 4043, 4142, 4141
3761, 4043, 4044, 4143, 4142
3762, 4044, 4045, 4144, 4143
3763, 4045, 4046, 4145, 4144
3764, 4046, 4047, 4146, 4145
3765, 4047, 4048, 4147, 4146
3766, 4048, 4049, 4148, 4147
3767, 4049, 4050, 4149, 4148
3768, 4050, 4051, 4150, 4149
3769, 4051, 4052, 4151, 4150
3770, 4052, 4053, 4152, 4151
3771, 4053, 4054, 4153, 4152
3772, 4054, 4055, 4154, 4153
3773, 4055, 4056, 4155, 4154
3774, 4056, 4057, 4156, 4155
3775, 4057, 4058, 4157, 4156
3776, 4058, 4059, 4158, 4157
3777, 4059, 4060, 4159, 4158
3778, 4060, 4061, 4160, 4159
3779, 4061, 4062, 4161, 4160
3780, 4062, 4063, 4162, 4161
3781, 4063, 4064, 4163, 4162
3782, 4064, 4065, 4164, 4163
3783, 4065, 4066, 4165, 4164
3784, 4066, 4067, 4166, 4165
3785, 4067, 4068, 4167, 4166
3786, 4068, 4069, 4168, 4167
3787, 4069, 4070, 4169, 4168
3788, 4070, 4071, 4170, 4169
3789, 4071, 4072, 4171, 4170
3790, 4072, 4073, 4172, 4171
3791, 4073, 4074, 4173, 4172
3792, 4074, 4075, 4174, 4173
3793, 4075, 4076, 4175, 4174
3794, 4076, 4077, 4176, 4175
3795, 4077, 4078, 4177, 4176
3796, 4078, 4079, 4178, 4177
3797, 4079, 4080, 4179, 4178
3798, 4080, 4081, 4180, 4179
3799, 4081, 4082, 4181, 4180
3800, 4082,  261,  262, 4181
3801,  364, 4083, 4182,  363
3802, 4083, 4084, 4183, 4182
3803, 4084, 4085, 4184, 4183
3804, 4085, 4086, 4185, 4184
3805, 4086, 4087, 4186, 4185
3806, 4087, 4088, 4187, 4186
3807, 4088, 4089, 4188, 4187
3808, 4089, 4090, 4189, 4188
3809, 4090, 4091, 4190, 4189
3810, 4091, 4092, 4191, 4190
3811, 4092, 4093, 4192, 4191
3812, 4093, 4094, 4193, 4192
3813, 4094, 4095, 4194, 4193
3814, 4095, 4096, 4195, 4194
3815, 4096, 4097, 4196, 4195
3816, 4097, 4098, 4197, 4196
3817, 4098, 4099, 4198, 4197
3818, 4099, 4100, 4199, 4198
3819, 4100, 4101, 4200, 4199
3820, 4101, 4102, 4201, 4200
3821, 4102, 4103, 4202, 4201
3822, 4103, 4104, 4203, 4202
3823, 4104, 4105, 4204, 4203
3824, 4105, 4106, 4205, 4204
3825, 4106, 4107, 4206, 4205
3826, 4107, 4108, 4207, 4206
3827, 4108, 4109, 4208, 4207
3828, 4109, 4110, 4209, 4208
3829, 4110, 4111, 4210, 4209
3830, 4111, 4112, 4211, 4210
3831, 4112, 4113, 4212, 4211
3832, 4113, 4114, 4213, 4212
3833, 4114, 4115, 4214, 4213
3834, 4115, 4116, 4215, 4214
3835, 4116, 4117, 4216, 4215
3836, 4117, 4118, 4217, 4216
3837, 4118, 4119, 4218, 4217
3838, 4119, 4120, 4219, 4218
3839, 4120, 4121, 4220, 4219
3840, 4121, 4122, 4221, 4220
3841, 4122, 4123, 4222, 4221
3842, 4123, 4124, 4223, 4222
3843, 4124, 4125, 4224, 4223
3844, 4125, 4126, 4225, 4224
3845, 4126, 4127, 4226, 4225
3846, 4127, 4128, 4227, 4226
3847, 4128, 4129, 4228, 4227
3848, 4129, 4130, 4229, 4228
3849, 4130, 4131, 4230, 4229
3850, 4131, 4132, 4231, 4230
3851, 4132, 4133, 4232, 4231
3852, 4133, 4134, 4233, 4232
3853, 4134, 4135, 4234, 4233
3854, 4135, 4136, 4235, 4234
3855, 4136, 4137, 4236, 4235
3856, 4137, 4138, 4237, 4236
3857, 4138, 4139, 4238, 4237
3858, 4139, 4140, 4239, 4238
3859, 4140, 4141, 4240, 4239
3860, 4141, 4142, 4241, 4240
3861, 4142, 4143, 4242, 4241
3862, 4143, 4144, 4243, 4242
3863, 4144, 4145, 4244, 4243
3864, 4145, 4146, 4245, 4244
3865, 4146, 4147, 4246, 4245
3866, 4147, 4148, 4247, 4246
3867, 4148, 4149, 4248, 4247
3868, 4149, 4150, 4249, 4248
3869, 4150, 4151, 4250, 4249
3870, 4151, 4152, 4251, 4250
3871, 4152, 4153, 4252, 4251
3872, 4153, 4154, 4253, 4252
3873, 4154, 4155, 4254, 4253
3874, 4155, 4156, 4255, 4254
3875, 4156, 4157, 4256, 4255
3876, 4157, 4158, 4257, 4256
3877, 4158, 4159, 4258, 4257
3878, 4159, 4160, 4259, 4258
3879, 4160, 4161, 4260, 4259
3880, 4161, 4162, 4261, 4260
3881, 4162, 4163, 4262, 4261
3882, 4163, 4164, 4263, 4262
3883, 4164, 4165, 4264, 4263
3884, 4165, 4166, 4265, 4264
3885, 4166, 4167, 4266, 4265
3886, 4167, 4168, 4267, 4266
3887, 4168, 4169, 4268, 4267
3888, 4169, 4170, 4269, 4268
3889, 4170, 4171, 4270, 4269
3890, 4171, 4172, 4271, 4270
3891, 4172, 4173, 4272, 4271
3892, 4173, 4174, 4273, 4272
3893, 4174, 4175, 4274, 4273
3894, 4175, 4176, 4275, 4274
3895, 4176, 4177, 4276, 4275
3896, 4177, 4178, 4277, 4276
3897, 4178, 4179, 4278, 4277
3898, 4179, 4180, 4279, 4278
3899, 4180, 4181, 4280, 4279
3900, 4181,  262,  263, 4280
3901,  363, 4182,  362,    6
3902, 4182, 4183,  361,  362
3903, 4183, 4184,  360,  361
3904, 4184, 4185,  359,  360
3905, 4185, 4186,  358,  359
3906, 4186, 4187,  357,  358
3907, 4187, 4188,  356,  357
3908, 4188, 4189,  355,  356
3909, 4189, 4190,  354,  355
3910, 4190, 4191,  353,  354
3911, 4191, 4192,  352,  353
3912, 4192, 4193,  351,  352
3913, 4193, 4194,  350,  351
3914, 4194, 4195,  349,  350
3915, 4195, 4196,  348,  349
3916, 4196, 4197,  347,  348
3917, 4197, 4198,  346,  347
3918, 4198, 4199,  345,  346
3919, 4199, 4200,  344,  345
3920, 4200, 4201,  343,  344
3921, 4201, 4202,  342,  343
3922, 4202, 4203,  341,  342
3923, 4203, 4204,  340,  341
3924, 4204, 4205,  339,  340
3925, 4205, 4206,  338,  339
3926, 4206, 4207,  337,  338
3927, 4207, 4208,  336,  337
3928, 4208, 4209,  335,  336
3929, 4209, 4210,  334,  335
3930, 4210, 4211,  333,  334
3931, 4211, 4212,  332,  333
3932, 4212, 4213,  331,  332
3933, 4213, 4214,  330,  331
3934, 4214, 4215,  329,  330
3935, 4215, 4216,  328,  329
3936, 4216, 4217,  327,  328
3937, 4217, 4218,  326,  327
3938, 4218, 4219,  325,  326
3939, 4219, 4220,  324,  325
3940, 4220, 4221,  323,  324
3941, 4221, 4222,  322,  323
3942, 4222, 4223,  321,  322
3943, 4223, 4224,  320,  321
3944, 4224, 4225,  319,  320
3945, 4225, 4226,  318,  319
3946, 4226, 4227,  317,  318
3947, 4227, 4228,  316,  317
3948, 4228, 4229,  315,  316
3949, 4229, 4230,  314,  315
3950, 4230, 4231,  313,  314
3951, 4231, 4232,  312,  313
3952, 4232, 4233,  311,  312
3953, 4233, 4234,  310,  311
3954, 4234, 4235,  309,  310
3955, 4235, 4236,  308,  309
3956, 4236, 4237,  307,  308
3957, 4237, 4238,  306,  307
3958, 4238, 4239,  305,  306
3959, 4239, 4240,  304,  305
3960, 4240, 4241,  303,  304
3961, 4241, 4242,  302,  303
3962, 4242, 4243,  301,  302
3963, 4243, 4244,  300,  301
3964, 4244, 4245,  299,  300
3965, 4245, 4246,  298,  299
3966, 4246, 4247,  297,  298
3967, 4247, 4248,  296,  297
3968, 4248, 4249,  295,  296
3969, 4249, 4250,  294,  295
3970, 4250, 4251,  293,  294
3971, 4251, 4252,  292,  293
3972, 4252, 4253,  291,  292
3973, 4253, 4254,  290,  291
3974, 4254, 4255,  289,  290
3975, 4255, 4256,  288,  289
3976, 4256, 4257,  287,  288
3977, 4257, 4258,  286,  287
3978, 4258, 4259,  285,  286
3979, 4259, 4260,  284,  285
3980, 4260, 4261,  283,  284
3981, 4261, 4262,  282,  283
3982, 4262, 4263,  281,  282
3983, 4263, 4264,  280,  281
3984, 4264, 4265,  279,  280
3985, 4265, 4266,  278,  279
3986, 4266, 4267,  277,  278
3987, 4267, 4268,  276,  277
3988, 4268, 4269,  275,  276
3989, 4269, 4270,  274,  275
3990, 4270, 4271,  273,  274
3991, 4271, 4272,  272,  273
3992, 4272, 4273,  271,  272
3993, 4273, 4274,  270,  271
3994, 4274, 4275,  269,  270
3995, 4275, 4276,  268,  269
3996, 4276, 4277,  267,  268
3997, 4277, 4278,  266,  267
3998, 4278, 4279,  265,  266
3999, 4279, 4280,  264,  265
4000, 4280,  263,    5,  264
4001,    2,  107, 4281,  518
4002,  107,  106, 4282, 4281
4003,  106,  105, 4283, 4282
4004,  105,  104, 4284, 4283
4005,  104,  103, 4285, 4284
4006,  103,  102, 4286, 4285
4007,  102,  101, 4287, 4286
4008,  101,  100, 4288, 4287
4009,  100,   99, 4289, 4288
4010,   99,   98, 4290, 4289
4011,   98,   97, 4291, 4290
4012,   97,   96, 4292, 4291
4013,   96,   95, 4293, 4292
4014,   95,   94, 4294, 4293
4015,   94,   93, 4295, 4294
4016,   93,   92, 4296, 4295
4017,   92,   91, 4297, 4296
4018,   91,   90, 4298, 4297
4019,   90,   89, 4299, 4298
4020,   89,   88, 4300, 4299
4021,   88,   87, 4301, 4300
4022,   87,   86, 4302, 4301
4023,   86,   85, 4303, 4302
4024,   85,   84, 4304, 4303
4025,   84,   83, 4305, 4304
4026,   83,   82, 4306, 4305
4027,   82,   81, 4307, 4306
4028,   81,   80, 4308, 4307
4029,   80,   79, 4309, 4308
4030,   79,   78, 4310, 4309
4031,   78,   77, 4311, 4310
4032,   77,   76, 4312, 4311
4033,   76,   75, 4313, 4312
4034,   75,   74, 4314, 4313
4035,   74,   73, 4315, 4314
4036,   73,   72, 4316, 4315
4037,   72,   71, 4317, 4316
4038,   71,   70, 4318, 4317
4039,   70,   69, 4319, 4318
4040,   69,   68, 4320, 4319
4041,   68,   67, 4321, 4320
4042,   67,   66, 4322, 4321
4043,   66,   65, 4323, 4322
4044,   65,   64, 4324, 4323
4045,   64,   63, 4325, 4324
4046,   63,   62, 4326, 4325
4047,   62,   61, 4327, 4326
4048,   61,   60, 4328, 4327
4049,   60,   59, 4329, 4328
4050,   59,   58, 4330, 4329
4051,   58,   57, 4331, 4330
4052,   57,   56, 4332, 4331
4053,   56,   55, 4333, 4332
4054,   55,   54, 4334, 4333
4055,   54,   53, 4335, 4334
4056,   53,   52, 4336, 4335
4057,   52,   51, 4337, 4336
4058,   51,   50, 4338, 4337
4059,   50,   49, 4339, 4338
4060,   49,   48, 4340, 4339
4061,   48,   47, 4341, 4340
4062,   47,   46, 4342, 4341
4063,   46,   45, 4343, 4342
4064,   45,   44, 4344, 4343
4065,   44,   43, 4345, 4344
4066,   43,   42, 4346, 4345
4067,   42,   41, 4347, 4346
4068,   41,   40, 4348, 4347
4069,   40,   39, 4349, 4348
4070,   39,   38, 4350, 4349
4071,   38,   37, 4351, 4350
4072,   37,   36, 4352, 4351
4073,   36,   35, 4353, 4352
4074,   35,   34, 4354, 4353
4075,   34,   33, 4355, 4354
4076,   33,   32, 4356, 4355
4077,   32,   31, 4357, 4356
4078,   31,   30, 4358, 4357
4079,   30,   29, 4359, 4358
4080,   29,   28, 4360, 4359
4081,   28,   27, 4361, 4360
4082,   27,   26, 4362, 4361
4083,   26,   25, 4363, 4362
4084,   25,   24, 4364, 4363
4085,   24,   23, 4365, 4364
4086,   23,   22, 4366, 4365
4087,   22,   21, 4367, 4366
4088,   21,   20, 4368, 4367
4089,   20,   19, 4369, 4368
4090,   19,   18, 4370, 4369
4091,   18,   17, 4371, 4370
4092,   17,   16, 4372, 4371
4093,   16,   15, 4373, 4372
4094,   15,   14, 4374, 4373
4095,   14,   13, 4375, 4374
4096,   13,   12, 4376, 4375
4097,   12,   11, 4377, 4376
4098,   11,   10, 4378, 4377
4099,   10,    9, 4379, 4378
4100,    9,    1,  382, 4379
4101,  518, 4281, 4380,  517
4102, 4281, 4282, 4381, 4380
4103, 4282, 4283, 4382, 4381
4104, 4283, 4284, 4383, 4382
4105, 4284, 4285, 4384, 4383
4106, 4285, 4286, 4385, 4384
4107, 4286, 4287, 4386, 4385
4108, 4287, 4288, 4387, 4386
4109, 4288, 4289, 4388, 4387
4110, 4289, 4290, 4389, 4388
4111, 4290, 4291, 4390, 4389
4112, 4291, 4292, 4391, 4390
4113, 4292, 4293, 4392, 4391
4114, 4293, 4294, 4393, 4392
4115, 4294, 4295, 4394, 4393
4116, 4295, 4296, 4395, 4394
4117, 4296, 4297, 4396, 4395
4118, 4297, 4298, 4397, 4396
4119, 4298, 4299, 4398, 4397
4120, 4299, 4300, 4399, 4398
4121, 4300, 4301, 4400, 4399
4122, 4301, 4302, 4401, 4400
4123, 4302, 4303, 4402, 4401
4124, 4303, 4304, 4403, 4402
4125, 4304, 4305, 4404, 4403
4126, 4305, 4306, 4405, 4404
4127, 4306, 4307, 4406, 4405
4128, 4307, 4308, 4407, 4406
4129, 4308, 4309, 4408, 4407
4130, 4309, 4310, 4409, 4408
4131, 4310, 4311, 4410, 4409
4132, 4311, 4312, 4411, 4410
4133, 4312, 4313, 4412, 4411
4134, 4313, 4314, 4413, 4412
4135, 4314, 4315, 4414, 4413
4136, 4315, 4316, 4415, 4414
4137, 4316, 4317, 4416, 4415
4138, 4317, 4318, 4417, 4416
4139, 4318, 4319, 4418, 4417
4140, 4319, 4320, 4419, 4418
4141, 4320, 4321, 4420, 4419
4142, 4321, 4322, 4421, 4420
4143, 4322, 4323, 4422, 4421
4144, 4323, 4324, 4423, 4422
4145, 4324, 4325, 4424, 4423
4146, 4325, 4326, 4425, 4424
4147, 4326, 4327, 4426, 4425
4148, 4327, 4328, 4427, 4426
4149, 4328, 4329, 4428, 4427
4150, 4329, 4330, 4429, 4428
4151, 4330, 4331, 4430, 4429
4152, 4331, 4332, 4431, 4430
4153, 4332, 4333, 4432, 4431
4154, 4333, 4334, 4433, 4432
4155, 4334, 4335, 4434, 4433
4156, 4335, 4336, 4435, 4434
4157, 4336, 4337, 4436, 4435
4158, 4337, 4338, 4437, 4436
4159, 4338, 4339, 4438, 4437
4160, 4339, 4340, 4439, 4438
4161, 4340, 4341, 4440, 4439
4162, 4341, 4342, 4441, 4440
4163, 4342, 4343, 4442, 4441
4164, 4343, 4344, 4443, 4442
4165, 4344, 4345, 4444, 4443
4166, 4345, 4346, 4445, 4444
4167, 4346, 4347, 4446, 4445
4168, 4347, 4348, 4447, 4446
4169, 4348, 4349, 4448, 4447
4170, 4349, 4350, 4449, 4448
4171, 4350, 4351, 4450, 4449
4172, 4351, 4352, 4451, 4450
4173, 4352, 4353, 4452, 4451
4174, 4353, 4354, 4453, 4452
4175, 4354, 4355, 4454, 4453
4176, 4355, 4356, 4455, 4454
4177, 4356, 4357, 4456, 4455
4178, 4357, 4358, 4457, 4456
4179, 4358, 4359, 4458, 4457
4180, 4359, 4360, 4459, 4458
4181, 4360, 4361, 4460, 4459
4182, 4361, 4362, 4461, 4460
4183, 4362, 4363, 4462, 4461
4184, 4363, 4364, 4463, 4462
4185, 4364, 4365, 4464, 4463
4186, 4365, 4366, 4465, 4464
4187, 4366, 4367, 4466, 4465
4188, 4367, 4368, 4467, 4466
4189, 4368, 4369, 4468, 4467
4190, 4369, 4370, 4469, 4468
4191, 4370, 4371, 4470, 4469
4192, 4371, 4372, 4471, 4470
4193, 4372, 4373, 4472, 4471
4194, 4373, 4374, 4473, 4472
4195, 4374, 4375, 4474, 4473
4196, 4375, 4376, 4475, 4474
4197, 4376, 4377, 4476, 4475
4198, 4377, 4378, 4477, 4476
4199, 4378, 4379, 4478, 4477
4200, 4379,  382,  383, 4478
4201,  517, 4380, 4479,  516
4202, 4380, 4381, 4480, 4479
4203, 4381, 4382, 4481, 4480
4204, 4382, 4383, 4482, 4481
4205, 4383, 4384, 4483, 4482
4206, 4384, 4385, 4484, 4483
4207, 4385, 4386, 4485, 4484
4208, 4386, 4387, 4486, 4485
4209, 4387, 4388, 4487, 4486
4210, 4388, 4389, 4488, 4487
4211, 4389, 4390, 4489, 4488
4212, 4390, 4391, 4490, 4489
4213, 4391, 4392, 4491, 4490
4214, 4392, 4393, 4492, 4491
4215, 4393, 4394, 4493, 4492
4216, 4394, 4395, 4494, 4493
4217, 4395, 4396, 4495, 4494
4218, 4396, 4397, 4496, 4495
4219, 4397, 4398, 4497, 4496
4220, 4398, 4399, 4498, 4497
4221, 4399, 4400, 4499, 4498
4222, 4400, 4401, 4500, 4499
4223, 4401, 4402, 4501, 4500
4224, 4402, 4403, 4502, 4501
4225, 4403, 4404, 4503, 4502
4226, 4404, 4405, 4504, 4503
4227, 4405, 4406, 4505, 4504
4228, 4406, 4407, 4506, 4505
4229, 4407, 4408, 4507, 4506
4230, 4408, 4409, 4508, 4507
4231, 4409, 4410, 4509, 4508
4232, 4410, 4411, 4510, 4509
4233, 4411, 4412, 4511, 4510
4234, 4412, 4413, 4512, 4511
4235, 4413, 4414, 4513, 4512
4236, 4414, 4415, 4514, 4513
4237, 4415, 4416, 4515, 4514
4238, 4416, 4417, 4516, 4515
4239, 4417, 4418, 4517, 4516
4240, 4418, 4419, 4518, 4517
4241, 4419, 4420, 4519, 4518
4242, 4420, 4421, 4520, 4519
4243, 4421, 4422, 4521, 4520
4244, 4422, 4423, 4522, 4521
4245, 4423, 4424, 4523, 4522
4246, 4424, 4425, 4524, 4523
4247, 4425, 4426, 4525, 4524
4248, 4426, 4427, 4526, 4525
4249, 4427, 4428, 4527, 4526
4250, 4428, 4429, 4528, 4527
4251, 4429, 4430, 4529, 4528
4252, 4430, 4431, 4530, 4529
4253, 4431, 4432, 4531, 4530
4254, 4432, 4433, 4532, 4531
4255, 4433, 4434, 4533, 4532
4256, 4434, 4435, 4534, 4533
4257, 4435, 4436, 4535, 4534
4258, 4436, 4437, 4536, 4535
4259, 4437, 4438, 4537, 4536
4260, 4438, 4439, 4538, 4537
4261, 4439, 4440, 4539, 4538
4262, 4440, 4441, 4540, 4539
4263, 4441, 4442, 4541, 4540
4264, 4442, 4443, 4542, 4541
4265, 4443, 4444, 4543, 4542
4266, 4444, 4445, 4544, 4543
4267, 4445, 4446, 4545, 4544
4268, 4446, 4447, 4546, 4545
4269, 4447, 4448, 4547, 4546
4270, 4448, 4449, 4548, 4547
4271, 4449, 4450, 4549, 4548
4272, 4450, 4451, 4550, 4549
4273, 4451, 4452, 4551, 4550
4274, 4452, 4453, 4552, 4551
4275, 4453, 4454, 4553, 4552
4276, 4454, 4455, 4554, 4553
4277, 4455, 4456, 4555, 4554
4278, 4456, 4457, 4556, 4555
4279, 4457, 4458, 4557, 4556
4280, 4458, 4459, 4558, 4557
4281, 4459, 4460, 4559, 4558
4282, 4460, 4461, 4560, 4559
4283, 4461, 4462, 4561, 4560
4284, 4462, 4463, 4562, 4561
4285, 4463, 4464, 4563, 4562
4286, 4464, 4465, 4564, 4563
4287, 4465, 4466, 4565, 4564
4288, 4466, 4467, 4566, 4565
4289, 4467, 4468, 4567, 4566
4290, 4468, 4469, 4568, 4567
4291, 4469, 4470, 4569, 4568
4292, 4470, 4471, 4570, 4569
4293, 4471, 4472, 4571, 4570
4294, 4472, 4473, 4572, 4571
4295, 4473, 4474, 4573, 4572
4296, 4474, 4475, 4574, 4573
4297, 4475, 4476, 4575, 4574
4298, 4476, 4477, 4576, 4575
4299, 4477, 4478, 4577, 4576
4300, 4478,  383,  384, 4577
4301,  516, 4479, 4578,  515
4302, 4479, 4480, 4579, 4578
4303, 4480, 4481, 4580, 4579
4304, 4481, 4482, 4581, 4580
4305, 4482, 4483, 4582, 4581
4306, 4483, 4484, 4583, 4582
4307, 4484, 4485, 4584, 4583
4308, 4485, 4486, 4585, 4584
4309, 4486, 4487, 4586, 4585
4310, 4487, 4488, 4587, 4586
4311, 4488, 4489, 4588, 4587
4312, 4489, 4490, 4589, 4588
4313, 4490, 4491, 4590, 4589
4314, 4491, 4492, 4591, 4590
4315, 4492, 4493, 4592, 4591
4316, 4493, 4494, 4593, 4592
4317, 4494, 4495, 4594, 4593
4318, 4495, 4496, 4595, 4594
4319, 4496, 4497, 4596, 4595
4320, 4497, 4498, 4597, 4596
4321, 4498, 4499, 4598, 4597
4322, 4499, 4500, 4599, 4598
4323, 4500, 4501, 4600, 4599
4324, 4501, 4502, 4601, 4600
4325, 4502, 4503, 4602, 4601
4326, 4503, 4504, 4603, 4602
4327, 4504, 4505, 4604, 4603
4328, 4505, 4506, 4605, 4604
4329, 4506, 4507, 4606, 4605
4330, 4507, 4508, 4607, 4606
4331, 4508, 4509, 4608, 4607
4332, 4509, 4510, 4609, 4608
4333, 4510, 4511, 4610, 4609
4334, 4511, 4512, 4611, 4610
4335, 4512, 4513, 4612, 4611
4336, 4513, 4514, 4613, 4612
4337, 4514, 4515, 4614, 4613
4338, 4515, 4516, 4615, 4614
4339, 4516, 4517, 4616, 4615
4340, 4517, 4518, 4617, 4616
4341, 4518, 4519, 4618, 4617
4342, 4519, 4520, 4619, 4618
4343, 4520, 4521, 4620, 4619
4344, 4521, 4522, 4621, 4620
4345, 4522, 4523, 4622, 4621
4346, 4523, 4524, 4623, 4622
4347, 4524, 4525, 4624, 4623
4348, 4525, 4526, 4625, 4624
4349, 4526, 4527, 4626, 4625
4350, 4527, 4528, 4627, 4626
4351, 4528, 4529, 4628, 4627
4352, 4529, 4530, 4629, 4628
4353, 4530, 4531, 4630, 4629
4354, 4531, 4532, 4631, 4630
4355, 4532, 4533, 4632, 4631
4356, 4533, 4534, 4633, 4632
4357, 4534, 4535, 4634, 4633
4358, 4535, 4536, 4635, 4634
4359, 4536, 4537, 4636, 4635
4360, 4537, 4538, 4637, 4636
4361, 4538, 4539, 4638, 4637
4362, 4539, 4540, 4639, 4638
4363, 4540, 4541, 4640, 4639
4364, 4541, 4542, 4641, 4640
4365, 4542, 4543, 4642, 4641
4366, 4543, 4544, 4643, 4642
4367, 4544, 4545, 4644, 4643
4368, 4545, 4546, 4645, 4644
4369, 4546, 4547, 4646, 4645
4370, 4547, 4548, 4647, 4646
4371, 4548, 4549, 4648, 4647
4372, 4549, 4550, 4649, 4648
4373, 4550, 4551, 4650, 4649
4374, 4551, 4552, 4651, 4650
4375, 4552, 4553, 4652, 4651
4376, 4553, 4554, 4653, 4652
4377, 4554, 4555, 4654, 4653
4378, 4555, 4556, 4655, 4654
4379, 4556, 4557, 4656, 4655
4380, 4557, 4558, 4657, 4656
4381, 4558, 4559, 4658, 4657
4382, 4559, 4560, 4659, 4658
4383, 4560, 4561, 4660, 4659
4384, 4561, 4562, 4661, 4660
4385, 4562, 4563, 4662, 4661
4386, 4563, 4564, 4663, 4662
4387, 4564, 4565, 4664, 4663
4388, 4565, 4566, 4665, 4664
4389, 4566, 4567, 4666, 4665
4390, 4567, 4568, 4667, 4666
4391, 4568, 4569, 4668, 4667
4392, 4569, 4570, 4669, 4668
4393, 4570, 4571, 4670, 4669
4394, 4571, 4572, 4671, 4670
4395, 4572, 4573, 4672, 4671
4396, 4573, 4574, 4673, 4672
4397, 4574, 4575, 4674, 4673
4398, 4575, 4576, 4675, 4674
4399, 4576, 4577, 4676, 4675
4400, 4577,  384,  385, 4676
4401,  515, 4578, 4677,  514
4402, 4578, 4579, 4678, 4677
4403, 4579, 4580, 4679, 4678
4404, 4580, 4581, 4680, 4679
4405, 4581, 4582, 4681, 4680
4406, 4582, 4583, 4682, 4681
4407, 4583, 4584, 4683, 4682
4408, 4584, 4585, 4684, 4683
4409, 4585, 4586, 4685, 4684
4410, 4586, 4587, 4686, 4685
4411, 4587, 4588, 4687, 4686
4412, 4588, 4589, 4688, 4687
4413, 4589, 4590, 4689, 4688
4414, 4590, 4591, 4690, 4689
4415, 4591, 4592, 4691, 4690
4416, 4592, 4593, 4692, 4691
4417, 4593, 4594, 4693, 4692
4418, 4594, 4595, 4694, 4693
4419, 4595, 4596, 4695, 4694
4420, 4596, 4597, 4696, 4695
4421, 4597, 4598, 4697, 4696
4422, 4598, 4599, 4698, 4697
4423, 4599, 4600, 4699, 4698
4424, 4600, 4601, 4700, 4699
4425, 4601, 4602, 4701, 4700
4426, 4602, 4603, 4702, 4701
4427, 4603, 4604, 4703, 4702
4428, 4604, 4605, 4704, 4703
4429, 4605, 4606, 4705, 4704
4430, 4606, 4607, 4706, 4705
4431, 4607, 4608, 4707, 4706
4432, 4608, 4609, 4708, 4707
4433, 4609, 4610, 4709, 4708
4434, 4610, 4611, 4710, 4709
4435, 4611, 4612, 4711, 4710
4436, 4612, 4613, 4712, 4711
4437, 4613, 4614, 4713, 4712
4438, 4614, 4615, 4714, 4713
4439, 4615, 4616, 4715, 4714
4440, 4616, 4617, 4716, 4715
4441, 4617, 4618, 4717, 4716
4442, 4618, 4619, 4718, 4717
4443, 4619, 4620, 4719, 4718
4444, 4620, 4621, 4720, 4719
4445, 4621, 4622, 4721, 4720
4446, 4622, 4623, 4722, 4721
4447, 4623, 4624, 4723, 4722
4448, 4624, 4625, 4724, 4723
4449, 4625, 4626, 4725, 4724
4450, 4626, 4627, 4726, 4725
4451, 4627, 4628, 4727, 4726
4452, 4628, 4629, 4728, 4727
4453, 4629, 4630, 4729, 4728
4454, 4630, 4631, 4730, 4729
4455, 4631, 4632, 4731, 4730
4456, 4632, 4633, 4732, 4731
4457, 4633, 4634, 4733, 4732
4458, 4634, 4635, 4734, 4733
4459, 4635, 4636, 4735, 4734
4460, 4636, 4637, 4736, 4735
4461, 4637, 4638, 4737, 4736
4462, 4638, 4639, 4738, 4737
4463, 4639, 4640, 4739, 4738
4464, 4640, 4641, 4740, 4739
4465, 4641, 4642, 4741, 4740
4466, 4642, 4643, 4742, 4741
4467, 4643, 4644, 4743, 4742
4468, 4644, 4645, 4744, 4743
4469, 4645, 4646, 4745, 4744
4470, 4646, 4647, 4746, 4745
4471, 4647, 4648, 4747, 4746
4472, 4648, 4649, 4748, 4747
4473, 4649, 4650, 4749, 4748
4474, 4650, 4651, 4750, 4749
4475, 4651, 4652, 4751, 4750
4476, 4652, 4653, 4752, 4751
4477, 4653, 4654, 4753, 4752
4478, 4654, 4655, 4754, 4753
4479, 4655, 4656, 4755, 4754
4480, 4656, 4657, 4756, 4755
4481, 4657, 4658, 4757, 4756
4482, 4658, 4659, 4758, 4757
4483, 4659, 4660, 4759, 4758
4484, 4660, 4661, 4760, 4759
4485, 4661, 4662, 4761, 4760
4486, 4662, 4663, 4762, 4761
4487, 4663, 4664, 4763, 4762
4488, 4664, 4665, 4764, 4763
4489, 4665, 4666, 4765, 4764
4490, 4666, 4667, 4766, 4765
4491, 4667, 4668, 4767, 4766
4492, 4668, 4669, 4768, 4767
4493, 4669, 4670, 4769, 4768
4494, 4670, 4671, 4770, 4769
4495, 4671, 4672, 4771, 4770
4496, 4672, 4673, 4772, 4771
4497, 4673, 4674, 4773, 4772
4498, 4674, 4675, 4774, 4773
4499, 4675, 4676, 4775, 4774
4500, 4676,  385,  386, 4775
4501,  514, 4677, 4776,  513
4502, 4677, 4678, 4777, 4776
4503, 4678, 4679, 4778, 4777
4504, 4679, 4680, 4779, 4778
4505, 4680, 4681, 4780, 4779
4506, 4681, 4682, 4781, 4780
4507, 4682, 4683, 4782, 4781
4508, 4683, 4684, 4783, 4782
4509, 4684, 4685, 4784, 4783
4510, 4685, 4686, 4785, 4784
4511, 4686, 4687, 4786, 4785
4512, 4687, 4688, 4787, 4786
4513, 4688, 4689, 4788, 4787
4514, 4689, 4690, 4789, 4788
4515, 4690, 4691, 4790, 4789
4516, 4691, 4692, 4791, 4790
4517, 4692, 4693, 4792, 4791
4518, 4693, 4694, 4793, 4792
4519, 4694, 4695, 4794, 4793
4520, 4695, 4696, 4795, 4794
4521, 4696, 4697, 4796, 4795
4522, 4697, 4698, 4797, 4796
4523, 4698, 4699, 4798, 4797
4524, 4699, 4700, 4799, 4798
4525, 4700, 4701, 4800, 4799
4526, 4701, 4702, 4801, 4800
4527, 4702, 4703, 4802, 4801
4528, 4703, 4704, 4803, 4802
4529, 4704, 4705, 4804, 4803
4530, 4705, 4706, 4805, 4804
4531, 4706, 4707, 4806, 4805
4532, 4707, 4708, 4807, 4806
4533, 4708, 4709, 4808, 4807
4534, 4709, 4710, 4809, 4808
4535, 4710, 4711, 4810, 4809
4536, 4711, 4712, 4811, 4810
4537, 4712, 4713, 4812, 4811
4538, 4713, 4714, 4813, 4812
4539, 4714, 4715, 4814, 4813
4540, 4715, 4716, 4815, 4814
4541, 4716, 4717, 4816, 4815
4542, 4717, 4718, 4817, 4816
4543, 4718, 4719, 4818, 4817
4544, 4719, 4720, 4819, 4818
4545, 4720, 4721, 4820, 4819
4546, 4721, 4722, 4821, 4820
4547, 4722, 4723, 4822, 4821
4548, 4723, 4724, 4823, 4822
4549, 4724, 4725, 4824, 4823
4550, 4725, 4726, 4825, 4824
4551, 4726, 4727, 4826, 4825
4552, 4727, 4728, 4827, 4826
4553, 4728, 4729, 4828, 4827
4554, 4729, 4730, 4829, 4828
4555, 4730, 4731, 4830, 4829
4556, 4731, 4732, 4831, 4830
4557, 4732, 4733, 4832, 4831
4558, 4733, 4734, 4833, 4832
4559, 4734, 4735, 4834, 4833
4560, 4735, 4736, 4835, 4834
4561, 4736, 4737, 4836, 4835
4562, 4737, 4738, 4837, 4836
4563, 4738, 4739, 4838, 4837
4564, 4739, 4740, 4839, 4838
4565, 4740, 4741, 4840, 4839
4566, 4741, 4742, 4841, 4840
4567, 4742, 4743, 4842, 4841
4568, 4743, 4744, 4843, 4842
4569, 4744, 4745, 4844, 4843
4570, 4745, 4746, 4845, 4844
4571, 4746, 4747, 4846, 4845
4572, 4747, 4748, 4847, 4846
4573, 4748, 4749, 4848, 4847
4574, 4749, 4750, 4849, 4848
4575, 4750, 4751, 4850, 4849
4576, 4751, 4752, 4851, 4850
4577, 4752, 4753, 4852, 4851
4578, 4753, 4754, 4853, 4852
4579, 4754, 4755, 4854, 4853
4580, 4755, 4756, 4855, 4854
4581, 4756, 4757, 4856, 4855
4582, 4757, 4758, 4857, 4856
4583, 4758, 4759, 4858, 4857
4584, 4759, 4760, 4859, 4858
4585, 4760, 4761, 4860, 4859
4586, 4761, 4762, 4861, 4860
4587, 4762, 4763, 4862, 4861
4588, 4763, 4764, 4863, 4862
4589, 4764, 4765, 4864, 4863
4590, 4765, 4766, 4865, 4864
4591, 4766, 4767, 4866, 4865
4592, 4767, 4768, 4867, 4866
4593, 4768, 4769, 4868, 4867
4594, 4769, 4770, 4869, 4868
4595, 4770, 4771, 4870, 4869
4596, 4771, 4772, 4871, 4870
4597, 4772, 4773, 4872, 4871
4598, 4773, 4774, 4873, 4872
4599, 4774, 4775, 4874, 4873
4600, 4775,  386,  387, 4874
4601,  513, 4776, 4875,  512
4602, 4776, 4777, 4876, 4875
4603, 4777, 4778, 4877, 4876
4604, 4778, 4779, 4878, 4877
4605, 4779, 4780, 4879, 4878
4606, 4780, 4781, 4880, 4879
4607, 4781, 4782, 4881, 4880
4608, 4782, 4783, 4882, 4881
4609, 4783, 4784, 4883, 4882
4610, 4784, 4785, 4884, 4883
4611, 4785, 4786, 4885, 4884
4612, 4786, 4787, 4886, 4885
4613, 4787, 4788, 4887, 4886
4614, 4788, 4789, 4888, 4887
4615, 4789, 4790, 4889, 4888
4616, 4790, 4791, 4890, 4889
4617, 4791, 4792, 4891, 4890
4618, 4792, 4793, 4892, 4891
4619, 4793, 4794, 4893, 4892
4620, 4794, 4795, 4894, 4893
4621, 4795, 4796, 4895, 4894
4622, 4796, 4797, 4896, 4895
4623, 4797, 4798, 4897, 4896
4624, 4798, 4799, 4898, 4897
4625, 4799, 4800, 4899, 4898
4626, 4800, 4801, 4900, 4899
4627, 4801, 4802, 4901, 4900
4628, 4802, 4803, 4902, 4901
4629, 4803, 4804, 4903, 4902
4630, 4804, 4805, 4904, 4903
4631, 4805, 4806, 4905, 4904
4632, 4806, 4807, 4906, 4905
4633, 4807, 4808, 4907, 4906
4634, 4808, 4809, 4908, 4907
4635, 4809, 4810, 4909, 4908
4636, 4810, 4811, 4910, 4909
4637, 4811, 4812, 4911, 4910
4638, 4812, 4813, 4912, 4911
4639, 4813, 4814, 4913, 4912
4640, 4814, 4815, 4914, 4913
4641, 4815, 4816, 4915, 4914
4642, 4816, 4817, 4916, 4915
4643, 4817, 4818, 4917, 4916
4644, 4818, 4819, 4918, 4917
4645, 4819, 4820, 4919, 4918
4646, 4820, 4821, 4920, 4919
4647, 4821, 4822, 4921, 4920
4648, 4822, 4823, 4922, 4921
4649, 4823, 4824, 4923, 4922
4650, 4824, 4825, 4924, 4923
4651, 4825, 4826, 4925, 4924
4652, 4826, 4827, 4926, 4925
4653, 4827, 4828, 4927, 4926
4654, 4828, 4829, 4928, 4927
4655, 4829, 4830, 4929, 4928
4656, 4830, 4831, 4930, 4929
4657, 4831, 4832, 4931, 4930
4658, 4832, 4833, 4932, 4931
4659, 4833, 4834, 4933, 4932
4660, 4834, 4835, 4934, 4933
4661, 4835, 4836, 4935, 4934
4662, 4836, 4837, 4936, 4935
4663, 4837, 4838, 4937, 4936
4664, 4838, 4839, 4938, 4937
4665, 4839, 4840, 4939, 4938
4666, 4840, 4841, 4940, 4939
4667, 4841, 4842, 4941, 4940
4668, 4842, 4843, 4942, 4941
4669, 4843, 4844, 4943, 4942
4670, 4844, 4845, 4944, 4943
4671, 4845, 4846, 4945, 4944
4672, 4846, 4847, 4946, 4945
4673, 4847, 4848, 4947, 4946
4674, 4848, 4849, 4948, 4947
4675, 4849, 4850, 4949, 4948
4676, 4850, 4851, 4950, 4949
4677, 4851, 4852, 4951, 4950
4678, 4852, 4853, 4952, 4951
4679, 4853, 4854, 4953, 4952
4680, 4854, 4855, 4954, 4953
4681, 4855, 4856, 4955, 4954
4682, 4856, 4857, 4956, 4955
4683, 4857, 4858, 4957, 4956
4684, 4858, 4859, 4958, 4957
4685, 4859, 4860, 4959, 4958
4686, 4860, 4861, 4960, 4959
4687, 4861, 4862, 4961, 4960
4688, 4862, 4863, 4962, 4961
4689, 4863, 4864, 4963, 4962
4690, 4864, 4865, 4964, 4963
4691, 4865, 4866, 4965, 4964
4692, 4866, 4867, 4966, 4965
4693, 4867, 4868, 4967, 4966
4694, 4868, 4869, 4968, 4967
4695, 4869, 4870, 4969, 4968
4696, 4870, 4871, 4970, 4969
4697, 4871, 4872, 4971, 4970
4698, 4872, 4873, 4972, 4971
4699, 4873, 4874, 4973, 4972
4700, 4874,  387,  388, 4973
4701,  512, 4875, 4974,  511
4702, 4875, 4876, 4975, 4974
4703, 4876, 4877, 4976, 4975
4704, 4877, 4878, 4977, 4976
4705, 4878, 4879, 4978, 4977
4706, 4879, 4880, 4979, 4978
4707, 4880, 4881, 4980, 4979
4708, 4881, 4882, 4981, 4980
4709, 4882, 4883, 4982, 4981
4710, 4883, 4884, 4983, 4982
4711, 4884, 4885, 4984, 4983
4712, 4885, 4886, 4985, 4984
4713, 4886, 4887, 4986, 4985
4714, 4887, 4888, 4987, 4986
4715, 4888, 4889, 4988, 4987
4716, 4889, 4890, 4989, 4988
4717, 4890, 4891, 4990, 4989
4718, 4891, 4892, 4991, 4990
4719, 4892, 4893, 4992, 4991
4720, 4893, 4894, 4993, 4992
4721, 4894, 4895, 4994, 4993
4722, 4895, 4896, 4995, 4994
4723, 4896, 4897, 4996, 4995
4724, 4897, 4898, 4997, 4996
4725, 4898, 4899, 4998, 4997
4726, 4899, 4900, 4999, 4998
4727, 4900, 4901, 5000, 4999
4728, 4901, 4902, 5001, 5000
4729, 4902, 4903, 5002, 5001
4730, 4903, 4904, 5003, 5002
4731, 4904, 4905, 5004, 5003
4732, 4905, 4906, 5005, 5004
4733, 4906, 4907, 5006, 5005
4734, 4907, 4908, 5007, 5006
4735, 4908, 4909, 5008, 5007
4736, 4909, 4910, 5009, 5008
4737, 4910, 4911, 5010, 5009
4738, 4911, 4912, 5011, 5010
4739, 4912, 4913, 5012, 5011
4740, 4913, 4914, 5013, 5012
4741, 4914, 4915, 5014, 5013
4742, 4915, 4916, 5015, 5014
4743, 4916, 4917, 5016, 5015
4744, 4917, 4918, 5017, 5016
4745, 4918, 4919, 5018, 5017
4746, 4919, 4920, 5019, 5018
4747, 4920, 4921, 5020, 5019
4748, 4921, 4922, 5021, 5020
4749, 4922, 4923, 5022, 5021
4750, 4923, 4924, 5023, 5022
4751, 4924, 4925, 5024, 5023
4752, 4925, 4926, 5025, 5024
4753, 4926, 4927, 5026, 5025
4754, 4927, 4928, 5027, 5026
4755, 4928, 4929, 5028, 5027
4756, 4929, 4930, 5029, 5028
4757, 4930, 4931, 5030, 5029
4758, 4931, 4932, 5031, 5030
4759, 4932, 4933, 5032, 5031
4760, 4933, 4934, 5033, 5032
4761, 4934, 4935, 5034, 5033
4762, 4935, 4936, 5035, 5034
4763, 4936, 4937, 5036, 5035
4764, 4937, 4938, 5037, 5036
4765, 4938, 4939, 5038, 5037
4766, 4939, 4940, 5039, 5038
4767, 4940, 4941, 5040, 5039
4768, 4941, 4942, 5041, 5040
4769, 4942, 4943, 5042, 5041
4770, 4943, 4944, 5043, 5042
4771, 4944, 4945, 5044, 5043
4772, 4945, 4946, 5045, 5044
4773, 4946, 4947, 5046, 5045
4774, 4947, 4948, 5047, 5046
4775, 4948, 4949, 5048, 5047
4776, 4949, 4950, 5049, 5048
4777, 4950, 4951, 5050, 5049
4778, 4951, 4952, 5051, 5050
4779, 4952, 4953, 5052, 5051
4780, 4953, 4954, 5053, 5052
4781, 4954, 4955, 5054, 5053
4782, 4955, 4956, 5055, 5054
4783, 4956, 4957, 5056, 5055
4784, 4957, 4958, 5057, 5056
4785, 4958, 4959, 5058, 5057
4786, 4959, 4960, 5059, 5058
4787, 4960, 4961, 5060, 5059
4788, 4961, 4962, 5061, 5060
4789, 4962, 4963, 5062, 5061
4790, 4963, 4964, 5063, 5062
4791, 4964, 4965, 5064, 5063
4792, 4965, 4966, 5065, 5064
4793, 4966, 4967, 5066, 5065
4794, 4967, 4968, 5067, 5066
4795, 4968, 4969, 5068, 5067
4796, 4969, 4970, 5069, 5068
4797, 4970, 4971, 5070, 5069
4798, 4971, 4972, 5071, 5070
4799, 4972, 4973, 5072, 5071
4800, 4973,  388,  389, 5072
4801,  511, 4974, 5073,  510
4802, 4974, 4975, 5074, 5073
4803, 4975, 4976, 5075, 5074
4804, 4976, 4977, 5076, 5075
4805, 4977, 4978, 5077, 5076
4806, 4978, 4979, 5078, 5077
4807, 4979, 4980, 5079, 5078
4808, 4980, 4981, 5080, 5079
4809, 4981, 4982, 5081, 5080
4810, 4982, 4983, 5082, 5081
4811, 4983, 4984, 5083, 5082
4812, 4984, 4985, 5084, 5083
4813, 4985, 4986, 5085, 5084
4814, 4986, 4987, 5086, 5085
4815, 4987, 4988, 5087, 5086
4816, 4988, 4989, 5088, 5087
4817, 4989, 4990, 5089, 5088
4818, 4990, 4991, 5090, 5089
4819, 4991, 4992, 5091, 5090
4820, 4992, 4993, 5092, 5091
4821, 4993, 4994, 5093, 5092
4822, 4994, 4995, 5094, 5093
4823, 4995, 4996, 5095, 5094
4824, 4996, 4997, 5096, 5095
4825, 4997, 4998, 5097, 5096
4826, 4998, 4999, 5098, 5097
4827, 4999, 5000, 5099, 5098
4828, 5000, 5001, 5100, 5099
4829, 5001, 5002, 5101, 5100
4830, 5002, 5003, 5102, 5101
4831, 5003, 5004, 5103, 5102
4832, 5004, 5005, 5104, 5103
4833, 5005, 5006, 5105, 5104
4834, 5006, 5007, 5106, 5105
4835, 5007, 5008, 5107, 5106
4836, 5008, 5009, 5108, 5107
4837, 5009, 5010, 5109, 5108
4838, 5010, 5011, 5110, 5109
4839, 5011, 5012, 5111, 5110
4840, 5012, 5013, 5112, 5111
4841, 5013, 5014, 5113, 5112
4842, 5014, 5015, 5114, 5113
4843, 5015, 5016, 5115, 5114
4844, 5016, 5017, 5116, 5115
4845, 5017, 5018, 5117, 5116
4846, 5018, 5019, 5118, 5117
4847, 5019, 5020, 5119, 5118
4848, 5020, 5021, 5120, 5119
4849, 5021, 5022, 5121, 5120
4850, 5022, 5023, 5122, 5121
4851, 5023, 5024, 5123, 5122
4852, 5024, 5025, 5124, 5123
4853, 5025, 5026, 5125, 5124
4854, 5026, 5027, 5126, 5125
4855, 5027, 5028, 5127, 5126
4856, 5028, 5029, 5128, 5127
4857, 5029, 5030, 5129, 5128
4858, 5030, 5031, 5130, 5129
4859, 5031, 5032, 5131, 5130
4860, 5032, 5033, 5132, 5131
4861, 5033, 5034, 5133, 5132
4862, 5034, 5035, 5134, 5133
4863, 5035, 5036, 5135, 5134
4864, 5036, 5037, 5136, 5135
4865, 5037, 5038, 5137, 5136
4866, 5038, 5039, 5138, 5137
4867, 5039, 5040, 5139, 5138
4868, 5040, 5041, 5140, 5139
4869, 5041, 5042, 5141, 5140
4870, 5042, 5043, 5142, 5141
4871, 5043, 5044, 5143, 5142
4872, 5044, 5045, 5144, 5143
4873, 5045, 5046, 5145, 5144
4874, 5046, 5047, 5146, 5145
4875, 5047, 5048, 5147, 5146
4876, 5048, 5049, 5148, 5147
4877, 5049, 5050, 5149, 5148
4878, 5050, 5051, 5150, 5149
4879, 5051, 5052, 5151, 5150
4880, 5052, 5053, 5152, 5151
4881, 5053, 5054, 5153, 5152
4882, 5054, 5055, 5154, 5153
4883, 5055, 5056, 5155, 5154
4884, 5056, 5057, 5156, 5155
4885, 5057, 5058, 5157, 5156
4886, 5058, 5059, 5158, 5157
4887, 5059, 5060, 5159, 5158
4888, 5060, 5061, 5160, 5159
4889, 5061, 5062, 5161, 5160
4890, 5062, 5063, 5162, 5161
4891, 5063, 5064, 5163, 5162
4892, 5064, 5065, 5164, 5163
4893, 5065, 5066, 5165, 5164
4894, 5066, 5067, 5166, 5165
4895, 5067, 5068, 5167, 5166
4896, 5068, 5069, 5168, 5167
4897, 5069, 5070, 5169, 5168
4898, 5070, 5071, 5170, 5169
4899, 5071, 5072, 5171, 5170
4900, 5072,  389,  390, 5171
4901,  510, 5073, 5172,  509
4902, 5073, 5074, 5173, 5172
4903, 5074, 5075, 5174, 5173
4904, 5075, 5076, 5175, 5174
4905, 5076, 5077, 5176, 5175
4906, 5077, 5078, 5177, 5176
4907, 5078, 5079, 5178, 5177
4908, 5079, 5080, 5179, 5178
4909, 5080, 5081, 5180, 5179
4910, 5081, 5082, 5181, 5180
4911, 5082, 5083, 5182, 5181
4912, 5083, 5084, 5183, 5182
4913, 5084, 5085, 5184, 5183
4914, 5085, 5086, 5185, 5184
4915, 5086, 5087, 5186, 5185
4916, 5087, 5088, 5187, 5186
4917, 5088, 5089, 5188, 5187
4918, 5089, 5090, 5189, 5188
4919, 5090, 5091, 5190, 5189
4920, 5091, 5092, 5191, 5190
4921, 5092, 5093, 5192, 5191
4922, 5093, 5094, 5193, 5192
4923, 5094, 5095, 5194, 5193
4924, 5095, 5096, 5195, 5194
4925, 5096, 5097, 5196, 5195
4926, 5097, 5098, 5197, 5196
4927, 5098, 5099, 5198, 5197
4928, 5099, 5100, 5199, 5198
4929, 5100, 5101, 5200, 5199
4930, 5101, 5102, 5201, 5200
4931, 5102, 5103, 5202, 5201
4932, 5103, 5104, 5203, 5202
4933, 5104, 5105, 5204, 5203
4934, 5105, 5106, 5205, 5204
4935, 5106, 5107, 5206, 5205
4936, 5107, 5108, 5207, 5206
4937, 5108, 5109, 5208, 5207
4938, 5109, 5110, 5209, 5208
4939, 5110, 5111, 5210, 5209
4940, 5111, 5112, 5211, 5210
4941, 5112, 5113, 5212, 5211
4942, 5113, 5114, 5213, 5212
4943, 5114, 5115, 5214, 5213
4944, 5115, 5116, 5215, 5214
4945, 5116, 5117, 5216, 5215
4946, 5117, 5118, 5217, 5216
4947, 5118, 5119, 5218, 5217
4948, 5119, 5120, 5219, 5218
4949, 5120, 5121, 5220, 5219
4950, 5121, 5122, 5221, 5220
4951, 5122, 5123, 5222, 5221
4952, 5123, 5124, 5223, 5222
4953, 5124, 5125, 5224, 5223
4954, 5125, 5126, 5225, 5224
4955, 5126, 5127, 5226, 5225
4956, 5127, 5128, 5227, 5226
4957, 5128, 5129, 5228, 5227
4958, 5129, 5130, 5229, 5228
4959, 5130, 5131, 5230, 5229
4960, 5131, 5132, 5231, 5230
4961, 5132, 5133, 5232, 5231
4962, 5133, 5134, 5233, 5232
4963, 5134, 5135, 5234, 5233
4964, 5135, 5136, 5235, 5234
4965, 5136, 5137, 5236, 5235
4966, 5137, 5138, 5237, 5236
4967, 5138, 5139, 5238, 5237
4968, 5139, 5140, 5239, 5238
4969, 5140, 5141, 5240, 5239
4970, 5141, 5142, 5241, 5240
4971, 5142, 5143, 5242, 5241
4972, 5143, 5144, 5243, 5242
4973, 5144, 5145, 5244, 5243
4974, 5145, 5146, 5245, 5244
4975, 5146, 5147, 5246, 5245
4976, 5147, 5148, 5247, 5246
4977, 5148, 5149, 5248, 5247
4978, 5149, 5150, 5249, 5248
4979, 5150, 5151, 5250, 5249
4980, 5151, 5152, 5251, 5250
4981, 5152, 5153, 5252, 5251
4982, 5153, 5154, 5253, 5252
4983, 5154, 5155, 5254, 5253
4984, 5155, 5156, 5255, 5254
4985, 5156, 5157, 5256, 5255
4986, 5157, 5158, 5257, 5256
4987, 5158, 5159, 5258, 5257
4988, 5159, 5160, 5259, 5258
4989, 5160, 5161, 5260, 5259
4990, 5161, 5162, 5261, 5260
4991, 5162, 5163, 5262, 5261
4992, 5163, 5164, 5263, 5262
4993, 5164, 5165, 5264, 5263
4994, 5165, 5166, 5265, 5264
4995, 5166, 5167, 5266, 5265
4996, 5167, 5168, 5267, 5266
4997, 5168, 5169, 5268, 5267
4998, 5169, 5170, 5269, 5268
4999, 5170, 5171, 5270, 5269
5000, 5171,  390,  391, 5270
5001,  509, 5172, 5271,  508
5002, 5172, 5173, 5272, 5271
5003, 5173, 5174, 5273, 5272
5004, 5174, 5175, 5274, 5273
5005, 5175, 5176, 5275, 5274
5006, 5176, 5177, 5276, 5275
5007, 5177, 5178, 5277, 5276
5008, 5178, 5179, 5278, 5277
5009, 5179, 5180, 5279, 5278
5010, 5180, 5181, 5280, 5279
5011, 5181, 5182, 5281, 5280
5012, 5182, 5183, 5282, 5281
5013, 5183, 5184, 5283, 5282
5014, 5184, 5185, 5284, 5283
5015, 5185, 5186, 5285, 5284
5016, 5186, 5187, 5286, 5285
5017, 5187, 5188, 5287, 5286
5018, 5188, 5189, 5288, 5287
5019, 5189, 5190, 5289, 5288
5020, 5190, 5191, 5290, 5289
5021, 5191, 5192, 5291, 5290
5022, 5192, 5193, 5292, 5291
5023, 5193, 5194, 5293, 5292
5024, 5194, 5195, 5294, 5293
5025, 5195, 5196, 5295, 5294
5026, 5196, 5197, 5296, 5295
5027, 5197, 5198, 5297, 5296
5028, 5198, 5199, 5298, 5297
5029, 5199, 5200, 5299, 5298
5030, 5200, 5201, 5300, 5299
5031, 5201, 5202, 5301, 5300
5032, 5202, 5203, 5302, 5301
5033, 5203, 5204, 5303, 5302
5034, 5204, 5205, 5304, 5303
5035, 5205, 5206, 5305, 5304
5036, 5206, 5207, 5306, 5305
5037, 5207, 5208, 5307, 5306
5038, 5208, 5209, 5308, 5307
5039, 5209, 5210, 5309, 5308
5040, 5210, 5211, 5310, 5309
5041, 5211, 5212, 5311, 5310
5042, 5212, 5213, 5312, 5311
5043, 5213, 5214, 5313, 5312
5044, 5214, 5215, 5314, 5313
5045, 5215, 5216, 5315, 5314
5046, 5216, 5217, 5316, 5315
5047, 5217, 5218, 5317, 5316
5048, 5218, 5219, 5318, 5317
5049, 5219, 5220, 5319, 5318
5050, 5220, 5221, 5320, 5319
5051, 5221, 5222, 5321, 5320
5052, 5222, 5223, 5322, 5321
5053, 5223, 5224, 5323, 5322
5054, 5224, 5225, 5324, 5323
5055, 5225, 5226, 5325, 5324
5056, 5226, 5227, 5326, 5325
5057, 5227, 5228, 5327, 5326
5058, 5228, 5229, 5328, 5327
5059, 5229, 5230, 5329, 5328
5060, 5230, 5231, 5330, 5329
5061, 5231, 5232, 5331, 5330
5062, 5232, 5233, 5332, 5331
5063, 5233, 5234, 5333, 5332
5064, 5234, 5235, 5334, 5333
5065, 5235, 5236, 5335, 5334
5066, 5236, 5237, 5336, 5335
5067, 5237, 5238, 5337, 5336
5068, 5238, 5239, 5338, 5337
5069, 5239, 5240, 5339, 5338
5070, 5240, 5241, 5340, 5339
5071, 5241, 5242, 5341, 5340
5072, 5242, 5243, 5342, 5341
5073, 5243, 5244, 5343, 5342
5074, 5244, 5245, 5344, 5343
5075, 5245, 5246, 5345, 5344
5076, 5246, 5247, 5346, 5345
5077, 5247, 5248, 5347, 5346
5078, 5248, 5249, 5348, 5347
5079, 5249, 5250, 5349, 5348
5080, 5250, 5251, 5350, 5349
5081, 5251, 5252, 5351, 5350
5082, 5252, 5253, 5352, 5351
5083, 5253, 5254, 5353, 5352
5084, 5254, 5255, 5354, 5353
5085, 5255, 5256, 5355, 5354
5086, 5256, 5257, 5356, 5355
5087, 5257, 5258, 5357, 5356
5088, 5258, 5259, 5358, 5357
5089, 5259, 5260, 5359, 5358
5090, 5260, 5261, 5360, 5359
5091, 5261, 5262, 5361, 5360
5092, 5262, 5263, 5362, 5361
5093, 5263, 5264, 5363, 5362
5094, 5264, 5265, 5364, 5363
5095, 5265, 5266, 5365, 5364
5096, 5266, 5267, 5366, 5365
5097, 5267, 5268, 5367, 5366
5098, 5268, 5269, 5368, 5367
5099, 5269, 5270, 5369, 5368
5100, 5270,  391,  392, 5369
5101,  508, 5271, 5370,  507
5102, 5271, 5272, 5371, 5370
5103, 5272, 5273, 5372, 5371
5104, 5273, 5274, 5373, 5372
5105, 5274, 5275, 5374, 5373
5106, 5275, 5276, 5375, 5374
5107, 5276, 5277, 5376, 5375
5108, 5277, 5278, 5377, 5376
5109, 5278, 5279, 5378, 5377
5110, 5279, 5280, 5379, 5378
5111, 5280, 5281, 5380, 5379
5112, 5281, 5282, 5381, 5380
5113, 5282, 5283, 5382, 5381
5114, 5283, 5284, 5383, 5382
5115, 5284, 5285, 5384, 5383
5116, 5285, 5286, 5385, 5384
5117, 5286, 5287, 5386, 5385
5118, 5287, 5288, 5387, 5386
5119, 5288, 5289, 5388, 5387
5120, 5289, 5290, 5389, 5388
5121, 5290, 5291, 5390, 5389
5122, 5291, 5292, 5391, 5390
5123, 5292, 5293, 5392, 5391
5124, 5293, 5294, 5393, 5392
5125, 5294, 5295, 5394, 5393
5126, 5295, 5296, 5395, 5394
5127, 5296, 5297, 5396, 5395
5128, 5297, 5298, 5397, 5396
5129, 5298, 5299, 5398, 5397
5130, 5299, 5300, 5399, 5398
5131, 5300, 5301, 5400, 5399
5132, 5301, 5302, 5401, 5400
5133, 5302, 5303, 5402, 5401
5134, 5303, 5304, 5403, 5402
5135, 5304, 5305, 5404, 5403
5136, 5305, 5306, 5405, 5404
5137, 5306, 5307, 5406, 5405
5138, 5307, 5308, 5407, 5406
5139, 5308, 5309, 5408, 5407
5140, 5309, 5310, 5409, 5408
5141, 5310, 5311, 5410, 5409
5142, 5311, 5312, 5411, 5410
5143, 5312, 5313, 5412, 5411
5144, 5313, 5314, 5413, 5412
5145, 5314, 5315, 5414, 5413
5146, 5315, 5316, 5415, 5414
5147, 5316, 5317, 5416, 5415
5148, 5317, 5318, 5417, 5416
5149, 5318, 5319, 5418, 5417
5150, 5319, 5320, 5419, 5418
5151, 5320, 5321, 5420, 5419
5152, 5321, 5322, 5421, 5420
5153, 5322, 5323, 5422, 5421
5154, 5323, 5324, 5423, 5422
5155, 5324, 5325, 5424, 5423
5156, 5325, 5326, 5425, 5424
5157, 5326, 5327, 5426, 5425
5158, 5327, 5328, 5427, 5426
5159, 5328, 5329, 5428, 5427
5160, 5329, 5330, 5429, 5428
5161, 5330, 5331, 5430, 5429
5162, 5331, 5332, 5431, 5430
5163, 5332, 5333, 5432, 5431
5164, 5333, 5334, 5433, 5432
5165, 5334, 5335, 5434, 5433
5166, 5335, 5336, 5435, 5434
5167, 5336, 5337, 5436, 5435
5168, 5337, 5338, 5437, 5436
5169, 5338, 5339, 5438, 5437
5170, 5339, 5340, 5439, 5438
5171, 5340, 5341, 5440, 5439
5172, 5341, 5342, 5441, 5440
5173, 5342, 5343, 5442, 5441
5174, 5343, 5344, 5443, 5442
5175, 5344, 5345, 5444, 5443
5176, 5345, 5346, 5445, 5444
5177, 5346, 5347, 5446, 5445
5178, 5347, 5348, 5447, 5446
5179, 5348, 5349, 5448, 5447
5180, 5349, 5350, 5449, 5448
5181, 5350, 5351, 5450, 5449
5182, 5351, 5352, 5451, 5450
5183, 5352, 5353, 5452, 5451
5184, 5353, 5354, 5453, 5452
5185, 5354, 5355, 5454, 5453
5186, 5355, 5356, 5455, 5454
5187, 5356, 5357, 5456, 5455
5188, 5357, 5358, 5457, 5456
5189, 5358, 5359, 5458, 5457
5190, 5359, 5360, 5459, 5458
5191, 5360, 5361, 5460, 5459
5192, 5361, 5362, 5461, 5460
5193, 5362, 5363, 5462, 5461
5194, 5363, 5364, 5463, 5462
5195, 5364, 5365, 5464, 5463
5196, 5365, 5366, 5465, 5464
5197, 5366, 5367, 5466, 5465
5198, 5367, 5368, 5467, 5466
5199, 5368, 5369, 5468, 5467
5200, 5369,  392,  393, 5468
5201,  507, 5370, 5469,  506
5202, 5370, 5371, 5470, 5469
5203, 5371, 5372, 5471, 5470
5204, 5372, 5373, 5472, 5471
5205, 5373, 5374, 5473, 5472
5206, 5374, 5375, 5474, 5473
5207, 5375, 5376, 5475, 5474
5208, 5376, 5377, 5476, 5475
5209, 5377, 5378, 5477, 5476
5210, 5378, 5379, 5478, 5477
5211, 5379, 5380, 5479, 5478
5212, 5380, 5381, 5480, 5479
5213, 5381, 5382, 5481, 5480
5214, 5382, 5383, 5482, 5481
5215, 5383, 5384, 5483, 5482
5216, 5384, 5385, 5484, 5483
5217, 5385, 5386, 5485, 5484
5218, 5386, 5387, 5486, 5485
5219, 5387, 5388, 5487, 5486
5220, 5388, 5389, 5488, 5487
5221, 5389, 5390, 5489, 5488
5222, 5390, 5391, 5490, 5489
5223, 5391, 5392, 5491, 5490
5224, 5392, 5393, 5492, 5491
5225, 5393, 5394, 5493, 5492
5226, 5394, 5395, 5494, 5493
5227, 5395, 5396, 5495, 5494
5228, 5396, 5397, 5496, 5495
5229, 5397, 5398, 5497, 5496
5230, 5398, 5399, 5498, 5497
5231, 5399, 5400, 5499, 5498
5232, 5400, 5401, 5500, 5499
5233, 5401, 5402, 5501, 5500
5234, 5402, 5403, 5502, 5501
5235, 5403, 5404, 5503, 5502
5236, 5404, 5405, 5504, 5503
5237, 5405, 5406, 5505, 5504
5238, 5406, 5407, 5506, 5505
5239, 5407, 5408, 5507, 5506
5240, 5408, 5409, 5508, 5507
5241, 5409, 5410, 5509, 5508
5242, 5410, 5411, 5510, 5509
5243, 5411, 5412, 5511, 5510
5244, 5412, 5413, 5512, 5511
5245, 5413, 5414, 5513, 5512
5246, 5414, 5415, 5514, 5513
5247, 5415, 5416, 5515, 5514
5248, 5416, 5417, 5516, 5515
5249, 5417, 5418, 5517, 5516
5250, 5418, 5419, 5518, 5517
5251, 5419, 5420, 5519, 5518
5252, 5420, 5421, 5520, 5519
5253, 5421, 5422, 5521, 5520
5254, 5422, 5423, 5522, 5521
5255, 5423, 5424, 5523, 5522
5256, 5424, 5425, 5524, 5523
5257, 5425, 5426, 5525, 5524
5258, 5426, 5427, 5526, 5525
5259, 5427, 5428, 5527, 5526
5260, 5428, 5429, 5528, 5527
5261, 5429, 5430, 5529, 5528
5262, 5430, 5431, 5530, 5529
5263, 5431, 5432, 5531, 5530
5264, 5432, 5433, 5532, 5531
5265, 5433, 5434, 5533, 5532
5266, 5434, 5435, 5534, 5533
5267, 5435, 5436, 5535, 5534
5268, 5436, 5437, 5536, 5535
5269, 5437, 5438, 5537, 5536
5270, 5438, 5439, 5538, 5537
5271, 5439, 5440, 5539, 5538
5272, 5440, 5441, 5540, 5539
5273, 5441, 5442, 5541, 5540
5274, 5442, 5443, 5542, 5541
5275, 5443, 5444, 5543, 5542
5276, 5444, 5445, 5544, 5543
5277, 5445, 5446, 5545, 5544
5278, 5446, 5447, 5546, 5545
5279, 5447, 5448, 5547, 5546
5280, 5448, 5449, 5548, 5547
5281, 5449, 5450, 5549, 5548
5282, 5450, 5451, 5550, 5549
5283, 5451, 5452, 5551, 5550
5284, 5452, 5453, 5552, 5551
5285, 5453, 5454, 5553, 5552
5286, 5454, 5455, 5554, 5553
5287, 5455, 5456, 5555, 5554
5288, 5456, 5457, 5556, 5555
5289, 5457, 5458, 5557, 5556
5290, 5458, 5459, 5558, 5557
5291, 5459, 5460, 5559, 5558
5292, 5460, 5461, 5560, 5559
5293, 5461, 5462, 5561, 5560
5294, 5462, 5463, 5562, 5561
5295, 5463, 5464, 5563, 5562
5296, 5464, 5465, 5564, 5563
5297, 5465, 5466, 5565, 5564
5298, 5466, 5467, 5566, 5565
5299, 5467, 5468, 5567, 5566
5300, 5468,  393,  394, 5567
5301,  506, 5469, 5568,  505
5302, 5469, 5470, 5569, 5568
5303, 5470, 5471, 5570, 5569
5304, 5471, 5472, 5571, 5570
5305, 5472, 5473, 5572, 5571
5306, 5473, 5474, 5573, 5572
5307, 5474, 5475, 5574, 5573
5308, 5475, 5476, 5575, 5574
5309, 5476, 5477, 5576, 5575
5310, 5477, 5478, 5577, 5576
5311, 5478, 5479, 5578, 5577
5312, 5479, 5480, 5579, 5578
5313, 5480, 5481, 5580, 5579
5314, 5481, 5482, 5581, 5580
5315, 5482, 5483, 5582, 5581
5316, 5483, 5484, 5583, 5582
5317, 5484, 5485, 5584, 5583
5318, 5485, 5486, 5585, 5584
5319, 5486, 5487, 5586, 5585
5320, 5487, 5488, 5587, 5586
5321, 5488, 5489, 5588, 5587
5322, 5489, 5490, 5589, 5588
5323, 5490, 5491, 5590, 5589
5324, 5491, 5492, 5591, 5590
5325, 5492, 5493, 5592, 5591
5326, 5493, 5494, 5593, 5592
5327, 5494, 5495, 5594, 5593
5328, 5495, 5496, 5595, 5594
5329, 5496, 5497, 5596, 5595
5330, 5497, 5498, 5597, 5596
5331, 5498, 5499, 5598, 5597
5332, 5499, 5500, 5599, 5598
5333, 5500, 5501, 5600, 5599
5334, 5501, 5502, 5601, 5600
5335, 5502, 5503, 5602, 5601
5336, 5503, 5504, 5603, 5602
5337, 5504, 5505, 5604, 5603
5338, 5505, 5506, 5605, 5604
5339, 5506, 5507, 5606, 5605
5340, 5507, 5508, 5607, 5606
5341, 5508, 5509, 5608, 5607
5342, 5509, 5510, 5609, 5608
5343, 5510, 5511, 5610, 5609
5344, 5511, 5512, 5611, 5610
5345, 5512, 5513, 5612, 5611
5346, 5513, 5514, 5613, 5612
5347, 5514, 5515, 5614, 5613
5348, 5515, 5516, 5615, 5614
5349, 5516, 5517, 5616, 5615
5350, 5517, 5518, 5617, 5616
5351, 5518, 5519, 5618, 5617
5352, 5519, 5520, 5619, 5618
5353, 5520, 5521, 5620, 5619
5354, 5521, 5522, 5621, 5620
5355, 5522, 5523, 5622, 5621
5356, 5523, 5524, 5623, 5622
5357, 5524, 5525, 5624, 5623
5358, 5525, 5526, 5625, 5624
5359, 5526, 5527, 5626, 5625
5360, 5527, 5528, 5627, 5626
5361, 5528, 5529, 5628, 5627
5362, 5529, 5530, 5629, 5628
5363, 5530, 5531, 5630, 5629
5364, 5531, 5532, 5631, 5630
5365, 5532, 5533, 5632, 5631
5366, 5533, 5534, 5633, 5632
5367, 5534, 5535, 5634, 5633
5368, 5535, 5536, 5635, 5634
5369, 5536, 5537, 5636, 5635
5370, 5537, 5538, 5637, 5636
5371, 5538, 5539, 5638, 5637
5372, 5539, 5540, 5639, 5638
5373, 5540, 5541, 5640, 5639
5374, 5541, 5542, 5641, 5640
5375, 5542, 5543, 5642, 5641
5376, 5543, 5544, 5643, 5642
5377, 5544, 5545, 5644, 5643
5378, 5545, 5546, 5645, 5644
5379, 5546, 5547, 5646, 5645
5380, 5547, 5548, 5647, 5646
5381, 5548, 5549, 5648, 5647
5382, 5549, 5550, 5649, 5648
5383, 5550, 5551, 5650, 5649
5384, 5551, 5552, 5651, 5650
5385, 5552, 5553, 5652, 5651
5386, 5553, 5554, 5653, 5652
5387, 5554, 5555, 5654, 5653
5388, 5555, 5556, 5655, 5654
5389, 5556, 5557, 5656, 5655
5390, 5557, 5558, 5657, 5656
5391, 5558, 5559, 5658, 5657
5392, 5559, 5560, 5659, 5658
5393, 5560, 5561, 5660, 5659
5394, 5561, 5562, 5661, 5660
5395, 5562, 5563, 5662, 5661
5396, 5563, 5564, 5663, 5662
5397, 5564, 5565, 5664, 5663
5398, 5565, 5566, 5665, 5664
5399, 5566, 5567, 5666, 5665
5400, 5567,  394,  395, 5666
5401,  505, 5568, 5667,  504
5402, 5568, 5569, 5668, 5667
5403, 5569, 5570, 5669, 5668
5404, 5570, 5571, 5670, 5669
5405, 5571, 5572, 5671, 5670
5406, 5572, 5573, 5672, 5671
5407, 5573, 5574, 5673, 5672
5408, 5574, 5575, 5674, 5673
5409, 5575, 5576, 5675, 5674
5410, 5576, 5577, 5676, 5675
5411, 5577, 5578, 5677, 5676
5412, 5578, 5579, 5678, 5677
5413, 5579, 5580, 5679, 5678
5414, 5580, 5581, 5680, 5679
5415, 5581, 5582, 5681, 5680
5416, 5582, 5583, 5682, 5681
5417, 5583, 5584, 5683, 5682
5418, 5584, 5585, 5684, 5683
5419, 5585, 5586, 5685, 5684
5420, 5586, 5587, 5686, 5685
5421, 5587, 5588, 5687, 5686
5422, 5588, 5589, 5688, 5687
5423, 5589, 5590, 5689, 5688
5424, 5590, 5591, 5690, 5689
5425, 5591, 5592, 5691, 5690
5426, 5592, 5593, 5692, 5691
5427, 5593, 5594, 5693, 5692
5428, 5594, 5595, 5694, 5693
5429, 5595, 5596, 5695, 5694
5430, 5596, 5597, 5696, 5695
5431, 5597, 5598, 5697, 5696
5432, 5598, 5599, 5698, 5697
5433, 5599, 5600, 5699, 5698
5434, 5600, 5601, 5700, 5699
5435, 5601, 5602, 5701, 5700
5436, 5602, 5603, 5702, 5701
5437, 5603, 5604, 5703, 5702
5438, 5604, 5605, 5704, 5703
5439, 5605, 5606, 5705, 5704
5440, 5606, 5607, 5706, 5705
5441, 5607, 5608, 5707, 5706
5442, 5608, 5609, 5708, 5707
5443, 5609, 5610, 5709, 5708
5444, 5610, 5611, 5710, 5709
5445, 5611, 5612, 5711, 5710
5446, 5612, 5613, 5712, 5711
5447, 5613, 5614, 5713, 5712
5448, 5614, 5615, 5714, 5713
5449, 5615, 5616, 5715, 5714
5450, 5616, 5617, 5716, 5715
5451, 5617, 5618, 5717, 5716
5452, 5618, 5619, 5718, 5717
5453, 5619, 5620, 5719, 5718
5454, 5620, 5621, 5720, 5719
5455, 5621, 5622, 5721, 5720
5456, 5622, 5623, 5722, 5721
5457, 5623, 5624, 5723, 5722
5458, 5624, 5625, 5724, 5723
5459, 5625, 5626, 5725, 5724
5460, 5626, 5627, 5726, 5725
5461, 5627, 5628, 5727, 5726
5462, 5628, 5629, 5728, 5727
5463, 5629, 5630, 5729, 5728
5464, 5630, 5631, 5730, 5729
5465, 5631, 5632, 5731, 5730
5466, 5632, 5633, 5732, 5731
5467, 5633, 5634, 5733, 5732
5468, 5634, 5635, 5734, 5733
5469, 5635, 5636, 5735, 5734
5470, 5636, 5637, 5736, 5735
5471, 5637, 5638, 5737, 5736
5472, 5638, 5639, 5738, 5737
5473, 5639, 5640, 5739, 5738
5474, 5640, 5641, 5740, 5739
5475, 5641, 5642, 5741, 5740
5476, 5642, 5643, 5742, 5741
5477, 5643, 5644, 5743, 5742
5478, 5644, 5645, 5744, 5743
5479, 5645, 5646, 5745, 5744
5480, 5646, 5647, 5746, 5745
5481, 5647, 5648, 5747, 5746
5482, 5648, 5649, 5748, 5747
5483, 5649, 5650, 5749, 5748
5484, 5650, 5651, 5750, 5749
5485, 5651, 5652, 5751, 5750
5486, 5652, 5653, 5752, 5751
5487, 5653, 5654, 5753, 5752
5488, 5654, 5655, 5754, 5753
5489, 5655, 5656, 5755, 5754
5490, 5656, 5657, 5756, 5755
5491, 5657, 5658, 5757, 5756
5492, 5658, 5659, 5758, 5757
5493, 5659, 5660, 5759, 5758
5494, 5660, 5661, 5760, 5759
5495, 5661, 5662, 5761, 5760
5496, 5662, 5663, 5762, 5761
5497, 5663, 5664, 5763, 5762
5498, 5664, 5665, 5764, 5763
5499, 5665, 5666, 5765, 5764
5500, 5666,  395,  396, 5765
5501,  504, 5667, 5766,  503
5502, 5667, 5668, 5767, 5766
5503, 5668, 5669, 5768, 5767
5504, 5669, 5670, 5769, 5768
5505, 5670, 5671, 5770, 5769
5506, 5671, 5672, 5771, 5770
5507, 5672, 5673, 5772, 5771
5508, 5673, 5674, 5773, 5772
5509, 5674, 5675, 5774, 5773
5510, 5675, 5676, 5775, 5774
5511, 5676, 5677, 5776, 5775
5512, 5677, 5678, 5777, 5776
5513, 5678, 5679, 5778, 5777
5514, 5679, 5680, 5779, 5778
5515, 5680, 5681, 5780, 5779
5516, 5681, 5682, 5781, 5780
5517, 5682, 5683, 5782, 5781
5518, 5683, 5684, 5783, 5782
5519, 5684, 5685, 5784, 5783
5520, 5685, 5686, 5785, 5784
5521, 5686, 5687, 5786, 5785
5522, 5687, 5688, 5787, 5786
5523, 5688, 5689, 5788, 5787
5524, 5689, 5690, 5789, 5788
5525, 5690, 5691, 5790, 5789
5526, 5691, 5692, 5791, 5790
5527, 5692, 5693, 5792, 5791
5528, 5693, 5694, 5793, 5792
5529, 5694, 5695, 5794, 5793
5530, 5695, 5696, 5795, 5794
5531, 5696, 5697, 5796, 5795
5532, 5697, 5698, 5797, 5796
5533, 5698, 5699, 5798, 5797
5534, 5699, 5700, 5799, 5798
5535, 5700, 5701, 5800, 5799
5536, 5701, 5702, 5801, 5800
5537, 5702, 5703, 5802, 5801
5538, 5703, 5704, 5803, 5802
5539, 5704, 5705, 5804, 5803
5540, 5705, 5706, 5805, 5804
5541, 5706, 5707, 5806, 5805
5542, 5707, 5708, 5807, 5806
5543, 5708, 5709, 5808, 5807
5544, 5709, 5710, 5809, 5808
5545, 5710, 5711, 5810, 5809
5546, 5711, 5712, 5811, 5810
5547, 5712, 5713, 5812, 5811
5548, 5713, 5714, 5813, 5812
5549, 5714, 5715, 5814, 5813
5550, 5715, 5716, 5815, 5814
5551, 5716, 5717, 5816, 5815
5552, 5717, 5718, 5817, 5816
5553, 5718, 5719, 5818, 5817
5554, 5719, 5720, 5819, 5818
5555, 5720, 5721, 5820, 5819
5556, 5721, 5722, 5821, 5820
5557, 5722, 5723, 5822, 5821
5558, 5723, 5724, 5823, 5822
5559, 5724, 5725, 5824, 5823
5560, 5725, 5726, 5825, 5824
5561, 5726, 5727, 5826, 5825
5562, 5727, 5728, 5827, 5826
5563, 5728, 5729, 5828, 5827
5564, 5729, 5730, 5829, 5828
5565, 5730, 5731, 5830, 5829
5566, 5731, 5732, 5831, 5830
5567, 5732, 5733, 5832, 5831
5568, 5733, 5734, 5833, 5832
5569, 5734, 5735, 5834, 5833
5570, 5735, 5736, 5835, 5834
5571, 5736, 5737, 5836, 5835
5572, 5737, 5738, 5837, 5836
5573, 5738, 5739, 5838, 5837
5574, 5739, 5740, 5839, 5838
5575, 5740, 5741, 5840, 5839
5576, 5741, 5742, 5841, 5840
5577, 5742, 5743, 5842, 5841
5578, 5743, 5744, 5843, 5842
5579, 5744, 5745, 5844, 5843
5580, 5745, 5746, 5845, 5844
5581, 5746, 5747, 5846, 5845
5582, 5747, 5748, 5847, 5846
5583, 5748, 5749, 5848, 5847
5584, 5749, 5750, 5849, 5848
5585, 5750, 5751, 5850, 5849
5586, 5751, 5752, 5851, 5850
5587, 5752, 5753, 5852, 5851
5588, 5753, 5754, 5853, 5852
5589, 5754, 5755, 5854, 5853
5590, 5755, 5756, 5855, 5854
5591, 5756, 5757, 5856, 5855
5592, 5757, 5758, 5857, 5856
5593, 5758, 5759, 5858, 5857
5594, 5759, 5760, 5859, 5858
5595, 5760, 5761, 5860, 5859
5596, 5761, 5762, 5861, 5860
5597, 5762, 5763, 5862, 5861
5598, 5763, 5764, 5863, 5862
5599, 5764, 5765, 5864, 5863
5600, 5765,  396,  397, 5864
5601,  503, 5766, 5865,  502
5602, 5766, 5767, 5866, 5865
5603, 5767, 5768, 5867, 5866
5604, 5768, 5769, 5868, 5867
5605, 5769, 5770, 5869, 5868
5606, 5770, 5771, 5870, 5869
5607, 5771, 5772, 5871, 5870
5608, 5772, 5773, 5872, 5871
5609, 5773, 5774, 5873, 5872
5610, 5774, 5775, 5874, 5873
5611, 5775, 5776, 5875, 5874
5612, 5776, 5777, 5876, 5875
5613, 5777, 5778, 5877, 5876
5614, 5778, 5779, 5878, 5877
5615, 5779, 5780, 5879, 5878
5616, 5780, 5781, 5880, 5879
5617, 5781, 5782, 5881, 5880
5618, 5782, 5783, 5882, 5881
5619, 5783, 5784, 5883, 5882
5620, 5784, 5785, 5884, 5883
5621, 5785, 5786, 5885, 5884
5622, 5786, 5787, 5886, 5885
5623, 5787, 5788, 5887, 5886
5624, 5788, 5789, 5888, 5887
5625, 5789, 5790, 5889, 5888
5626, 5790, 5791, 5890, 5889
5627, 5791, 5792, 5891, 5890
5628, 5792, 5793, 5892, 5891
5629, 5793, 5794, 5893, 5892
5630, 5794, 5795, 5894, 5893
5631, 5795, 5796, 5895, 5894
5632, 5796, 5797, 5896, 5895
5633, 5797, 5798, 5897, 5896
5634, 5798, 5799, 5898, 5897
5635, 5799, 5800, 5899, 5898
5636, 5800, 5801, 5900, 5899
5637, 5801, 5802, 5901, 5900
5638, 5802, 5803, 5902, 5901
5639, 5803, 5804, 5903, 5902
5640, 5804, 5805, 5904, 5903
5641, 5805, 5806, 5905, 5904
5642, 5806, 5807, 5906, 5905
5643, 5807, 5808, 5907, 5906
5644, 5808, 5809, 5908, 5907
5645, 5809, 5810, 5909, 5908
5646, 5810, 5811, 5910, 5909
5647, 5811, 5812, 5911, 5910
5648, 5812, 5813, 5912, 5911
5649, 5813, 5814, 5913, 5912
5650, 5814, 5815, 5914, 5913
5651, 5815, 5816, 5915, 5914
5652, 5816, 5817, 5916, 5915
5653, 5817, 5818, 5917, 5916
5654, 5818, 5819, 5918, 5917
5655, 5819, 5820, 5919, 5918
5656, 5820, 5821, 5920, 5919
5657, 5821, 5822, 5921, 5920
5658, 5822, 5823, 5922, 5921
5659, 5823, 5824, 5923, 5922
5660, 5824, 5825, 5924, 5923
5661, 5825, 5826, 5925, 5924
5662, 5826, 5827, 5926, 5925
5663, 5827, 5828, 5927, 5926
5664, 5828, 5829, 5928, 5927
5665, 5829, 5830, 5929, 5928
5666, 5830, 5831, 5930, 5929
5667, 5831, 5832, 5931, 5930
5668, 5832, 5833, 5932, 5931
5669, 5833, 5834, 5933, 5932
5670, 5834, 5835, 5934, 5933
5671, 5835, 5836, 5935, 5934
5672, 5836, 5837, 5936, 5935
5673, 5837, 5838, 5937, 5936
5674, 5838, 5839, 5938, 5937
5675, 5839, 5840, 5939, 5938
5676, 5840, 5841, 5940, 5939
5677, 5841, 5842, 5941, 5940
5678, 5842, 5843, 5942, 5941
5679, 5843, 5844, 5943, 5942
5680, 5844, 5845, 5944, 5943
5681, 5845, 5846, 5945, 5944
5682, 5846, 5847, 5946, 5945
5683, 5847, 5848, 5947, 5946
5684, 5848, 5849, 5948, 5947
5685, 5849, 5850, 5949, 5948
5686, 5850, 5851, 5950, 5949
5687, 5851, 5852, 5951, 5950
5688, 5852, 5853, 5952, 5951
5689, 5853, 5854, 5953, 5952
5690, 5854, 5855, 5954, 5953
5691, 5855, 5856, 5955, 5954
5692, 5856, 5857, 5956, 5955
5693, 5857, 5858, 5957, 5956
5694, 5858, 5859, 5958, 5957
5695, 5859, 5860, 5959, 5958
5696, 5860, 5861, 5960, 5959
5697, 5861, 5862, 5961, 5960
5698, 5862, 5863, 5962, 5961
5699, 5863, 5864, 5963, 5962
5700, 5864,  397,  398, 5963
5701,  502, 5865, 5964,  501
5702, 5865, 5866, 5965, 5964
5703, 5866, 5867, 5966, 5965
5704, 5867, 5868, 5967, 5966
5705, 5868, 5869, 5968, 5967
5706, 5869, 5870, 5969, 5968
5707, 5870, 5871, 5970, 5969
5708, 5871, 5872, 5971, 5970
5709, 5872, 5873, 5972, 5971
5710, 5873, 5874, 5973, 5972
5711, 5874, 5875, 5974, 5973
5712, 5875, 5876, 5975, 5974
5713, 5876, 5877, 5976, 5975
5714, 5877, 5878, 5977, 5976
5715, 5878, 5879, 5978, 5977
5716, 5879, 5880, 5979, 5978
5717, 5880, 5881, 5980, 5979
5718, 5881, 5882, 5981, 5980
5719, 5882, 5883, 5982, 5981
5720, 5883, 5884, 5983, 5982
5721, 5884, 5885, 5984, 5983
5722, 5885, 5886, 5985, 5984
5723, 5886, 5887, 5986, 5985
5724, 5887, 5888, 5987, 5986
5725, 5888, 5889, 5988, 5987
5726, 5889, 5890, 5989, 5988
5727, 5890, 5891, 5990, 5989
5728, 5891, 5892, 5991, 5990
5729, 5892, 5893, 5992, 5991
5730, 5893, 5894, 5993, 5992
5731, 5894, 5895, 5994, 5993
5732, 5895, 5896, 5995, 5994
5733, 5896, 5897, 5996, 5995
5734, 5897, 5898, 5997, 5996
5735, 5898, 5899, 5998, 5997
5736, 5899, 5900, 5999, 5998
5737, 5900, 5901, 6000, 5999
5738, 5901, 5902, 6001, 6000
5739, 5902, 5903, 6002, 6001
5740, 5903, 5904, 6003, 6002
5741, 5904, 5905, 6004, 6003
5742, 5905, 5906, 6005, 6004
5743, 5906, 5907, 6006, 6005
5744, 5907, 5908, 6007, 6006
5745, 5908, 5909, 6008, 6007
5746, 5909, 5910, 6009, 6008
5747, 5910, 5911, 6010, 6009
5748, 5911, 5912, 6011, 6010
5749, 5912, 5913, 6012, 6011
5750, 5913, 5914, 6013, 6012
5751, 5914, 5915, 6014, 6013
5752, 5915, 5916, 6015, 6014
5753, 5916, 5917, 6016, 6015
5754, 5917, 5918, 6017, 6016
5755, 5918, 5919, 6018, 6017
5756, 5919, 5920, 6019, 6018
5757, 5920, 5921, 6020, 6019
5758, 5921, 5922, 6021, 6020
5759, 5922, 5923, 6022, 6021
5760, 5923, 5924, 6023, 6022
5761, 5924, 5925, 6024, 6023
5762, 5925, 5926, 6025, 6024
5763, 5926, 5927, 6026, 6025
5764, 5927, 5928, 6027, 6026
5765, 5928, 5929, 6028, 6027
5766, 5929, 5930, 6029, 6028
5767, 5930, 5931, 6030, 6029
5768, 5931, 5932, 6031, 6030
5769, 5932, 5933, 6032, 6031
5770, 5933, 5934, 6033, 6032
5771, 5934, 5935, 6034, 6033
5772, 5935, 5936, 6035, 6034
5773, 5936, 5937, 6036, 6035
5774, 5937, 5938, 6037, 6036
5775, 5938, 5939, 6038, 6037
5776, 5939, 5940, 6039, 6038
5777, 5940, 5941, 6040, 6039
5778, 5941, 5942, 6041, 6040
5779, 5942, 5943, 6042, 6041
5780, 5943, 5944, 6043, 6042
5781, 5944, 5945, 6044, 6043
5782, 5945, 5946, 6045, 6044
5783, 5946, 5947, 6046, 6045
5784, 5947, 5948, 6047, 6046
5785, 5948, 5949, 6048, 6047
5786, 5949, 5950, 6049, 6048
5787, 5950, 5951, 6050, 6049
5788, 5951, 5952, 6051, 6050
5789, 5952, 5953, 6052, 6051
5790, 5953, 5954, 6053, 6052
5791, 5954, 5955, 6054, 6053
5792, 5955, 5956, 6055, 6054
5793, 5956, 5957, 6056, 6055
5794, 5957, 5958, 6057, 6056
5795, 5958, 5959, 6058, 6057
5796, 5959, 5960, 6059, 6058
5797, 5960, 5961, 6060, 6059
5798, 5961, 5962, 6061, 6060
5799, 5962, 5963, 6062, 6061
5800, 5963,  398,  399, 6062
5801,  501, 5964, 6063,  500
5802, 5964, 5965, 6064, 6063
5803, 5965, 5966, 6065, 6064
5804, 5966, 5967, 6066, 6065
5805, 5967, 5968, 6067, 6066
5806, 5968, 5969, 6068, 6067
5807, 5969, 5970, 6069, 6068
5808, 5970, 5971, 6070, 6069
5809, 5971, 5972, 6071, 6070
5810, 5972, 5973, 6072, 6071
5811, 5973, 5974, 6073, 6072
5812, 5974, 5975, 6074, 6073
5813, 5975, 5976, 6075, 6074
5814, 5976, 5977, 6076, 6075
5815, 5977, 5978, 6077, 6076
5816, 5978, 5979, 6078, 6077
5817, 5979, 5980, 6079, 6078
5818, 5980, 5981, 6080, 6079
5819, 5981, 5982, 6081, 6080
5820, 5982, 5983, 6082, 6081
5821, 5983, 5984, 6083, 6082
5822, 5984, 5985, 6084, 6083
5823, 5985, 5986, 6085, 6084
5824, 5986, 5987, 6086, 6085
5825, 5987, 5988, 6087, 6086
5826, 5988, 5989, 6088, 6087
5827, 5989, 5990, 6089, 6088
5828, 5990, 5991, 6090, 6089
5829, 5991, 5992, 6091, 6090
5830, 5992, 5993, 6092, 6091
5831, 5993, 5994, 6093, 6092
5832, 5994, 5995, 6094, 6093
5833, 5995, 5996, 6095, 6094
5834, 5996, 5997, 6096, 6095
5835, 5997, 5998, 6097, 6096
5836, 5998, 5999, 6098, 6097
5837, 5999, 6000, 6099, 6098
5838, 6000, 6001, 6100, 6099
5839, 6001, 6002, 6101, 6100
5840, 6002, 6003, 6102, 6101
5841, 6003, 6004, 6103, 6102
5842, 6004, 6005, 6104, 6103
5843, 6005, 6006, 6105, 6104
5844, 6006, 6007, 6106, 6105
5845, 6007, 6008, 6107, 6106
5846, 6008, 6009, 6108, 6107
5847, 6009, 6010, 6109, 6108
5848, 6010, 6011, 6110, 6109
5849, 6011, 6012, 6111, 6110
5850, 6012, 6013, 6112, 6111
5851, 6013, 6014, 6113, 6112
5852, 6014, 6015, 6114, 6113
5853, 6015, 6016, 6115, 6114
5854, 6016, 6017, 6116, 6115
5855, 6017, 6018, 6117, 6116
5856, 6018, 6019, 6118, 6117
5857, 6019, 6020, 6119, 6118
5858, 6020, 6021, 6120, 6119
5859, 6021, 6022, 6121, 6120
5860, 6022, 6023, 6122, 6121
5861, 6023, 6024, 6123, 6122
5862, 6024, 6025, 6124, 6123
5863, 6025, 6026, 6125, 6124
5864, 6026, 6027, 6126, 6125
5865, 6027, 6028, 6127, 6126
5866, 6028, 6029, 6128, 6127
5867, 6029, 6030, 6129, 6128
5868, 6030, 6031, 6130, 6129
5869, 6031, 6032, 6131, 6130
5870, 6032, 6033, 6132, 6131
5871, 6033, 6034, 6133, 6132
5872, 6034, 6035, 6134, 6133
5873, 6035, 6036, 6135, 6134
5874, 6036, 6037, 6136, 6135
5875, 6037, 6038, 6137, 6136
5876, 6038, 6039, 6138, 6137
5877, 6039, 6040, 6139, 6138
5878, 6040, 6041, 6140, 6139
5879, 6041, 6042, 6141, 6140
5880, 6042, 6043, 6142, 6141
5881, 6043, 6044, 6143, 6142
5882, 6044, 6045, 6144, 6143
5883, 6045, 6046, 6145, 6144
5884, 6046, 6047, 6146, 6145
5885, 6047, 6048, 6147, 6146
5886, 6048, 6049, 6148, 6147
5887, 6049, 6050, 6149, 6148
5888, 6050, 6051, 6150, 6149
5889, 6051, 6052, 6151, 6150
5890, 6052, 6053, 6152, 6151
5891, 6053, 6054, 6153, 6152
5892, 6054, 6055, 6154, 6153
5893, 6055, 6056, 6155, 6154
5894, 6056, 6057, 6156, 6155
5895, 6057, 6058, 6157, 6156
5896, 6058, 6059, 6158, 6157
5897, 6059, 6060, 6159, 6158
5898, 6060, 6061, 6160, 6159
5899, 6061, 6062, 6161, 6160
5900, 6062,  399,  400, 6161
5901,  500, 6063,  499,    8
5902, 6063, 6064,  498,  499
5903, 6064, 6065,  497,  498
5904, 6065, 6066,  496,  497
5905, 6066, 6067,  495,  496
5906, 6067, 6068,  494,  495
5907, 6068, 6069,  493,  494
5908, 6069, 6070,  492,  493
5909, 6070, 6071,  491,  492
5910, 6071, 6072,  490,  491
5911, 6072, 6073,  489,  490
5912, 6073, 6074,  488,  489
5913, 6074, 6075,  487,  488
5914, 6075, 6076,  486,  487
5915, 6076, 6077,  485,  486
5916, 6077, 6078,  484,  485
5917, 6078, 6079,  483,  484
5918, 6079, 6080,  482,  483
5919, 6080, 6081,  481,  482
5920, 6081, 6082,  480,  481
5921, 6082, 6083,  479,  480
5922, 6083, 6084,  478,  479
5923, 6084, 6085,  477,  478
5924, 6085, 6086,  476,  477
5925, 6086, 6087,  475,  476
5926, 6087, 6088,  474,  475
5927, 6088, 6089,  473,  474
5928, 6089, 6090,  472,  473
5929, 6090, 6091,  471,  472
5930, 6091, 6092,  470,  471
5931, 6092, 6093,  469,  470
5932, 6093, 6094,  468,  469
5933, 6094, 6095,  467,  468
5934, 6095, 6096,  466,  467
5935, 6096, 6097,  465,  466
5936, 6097, 6098,  464,  465
5937, 6098, 6099,  463,  464
5938, 6099, 6100,  462,  463
5939, 6100, 6101,  461,  462
5940, 6101, 6102,  460,  461
5941, 6102, 6103,  459,  460
5942, 6103, 6104,  458,  459
5943, 6104, 6105,  457,  458
5944, 6105, 6106,  456,  457
5945, 6106, 6107,  455,  456
5946, 6107, 6108,  454,  455
5947, 6108, 6109,  453,  454
5948, 6109, 6110,  452,  453
5949, 6110, 6111,  451,  452
5950, 6111, 6112,  450,  451
5951, 6112, 6113,  449,  450
5952, 6113, 6114,  448,  449
5953, 6114, 6115,  447,  448
5954, 6115, 6116,  446,  447
5955, 6116, 6117,  445,  446
5956, 6117, 6118,  444,  445
5957, 6118, 6119,  443,  444
5958, 6119, 6120,  442,  443
5959, 6120, 6121,  441,  442
5960, 6121, 6122,  440,  441
5961, 6122, 6123,  439,  440
5962, 6123, 6124,  438,  439
5963, 6124, 6125,  437,  438
5964, 6125, 6126,  436,  437
5965, 6126, 6127,  435,  436
5966, 6127, 6128,  434,  435
5967, 6128, 6129,  433,  434
5968, 6129, 6130,  432,  433
5969, 6130, 6131,  431,  432
5970, 6131, 6132,  430,  431
5971, 6132, 6133,  429,  430
5972, 6133, 6134,  428,  429
5973, 6134, 6135,  427,  428
5974, 6135, 6136,  426,  427
5975, 6136, 6137,  425,  426
5976, 6137, 6138,  424,  425
5977, 6138, 6139,  423,  424
5978, 6139, 6140,  422,  423
5979, 6140, 6141,  421,  422
5980, 6141, 6142,  420,  421
5981, 6142, 6143,  419,  420
5982, 6143, 6144,  418,  419
5983, 6144, 6145,  417,  418
5984, 6145, 6146,  416,  417
5985, 6146, 6147,  415,  416
5986, 6147, 6148,  414,  415
5987, 6148, 6149,  413,  414
5988, 6149, 6150,  412,  413
5989, 6150, 6151,  411,  412
5990, 6151, 6152,  410,  411
5991, 6152, 6153,  409,  410
5992, 6153, 6154,  408,  409
5993, 6154, 6155,  407,  408
5994, 6155, 6156,  406,  407
5995, 6156, 6157,  405,  406
5996, 6157, 6158,  404,  405
5997, 6158, 6159,  403,  404
5998, 6159, 6160,  402,  403
5999, 6160, 6161,  401,  402
6000, 6161,  400,    7,  401
*Nset, nset=Set-1, generate
    1,  6161,     1
*Elset, elset=Set-1, generate
    1,  6000,     1
** Section: Section-1
*Shell Section, elset=Set-1, material=Material-1
1., 5
*End Instance
**  
*Nset, nset=Set-1, instance=Part-1-1
   1,   2,   3,   4,   5,   6,   7,   8, 108, 109, 110, 111, 112, 113, 114, 115
 116, 117, 118, 119, 120, 121, 122, 123, 124, 125, 126, 226, 227, 228, 229, 230
 231, 232, 233, 234, 235, 236, 237, 238, 239, 240, 241, 242, 243, 244, 245, 246
 247, 248, 249, 250, 251, 252, 253, 254, 255, 256, 257, 258, 259, 260, 261, 262
 263, 363, 364, 365, 366, 367, 368, 369, 370, 371, 372, 373, 374, 375, 376, 377
 378, 379, 380, 381, 382, 383, 384, 385, 386, 387, 388, 389, 390, 391, 392, 393
 394, 395, 396, 397, 398, 399, 400, 500, 501, 502, 503, 504, 505, 506, 507, 508
 509, 510, 511, 512, 513, 514, 515, 516, 517, 518
*Elset, elset=Set-1, instance=Part-1-1
    1,  100,  101,  200,  201,  300,  301,  400,  401,  500,  501,  600,  601,  700,  701,  800
  801,  900,  901, 1000, 1001, 1100, 1101, 1200, 1201, 1300, 1301, 1400, 1401, 1500, 1501, 1600
 1601, 1700, 1701, 1800, 1801, 1900, 1901, 2000, 2001, 2100, 2101, 2200, 2201, 2300, 2301, 2400
 2401, 2500, 2501, 2600, 2601, 2700, 2701, 2800, 2801, 2900, 2901, 3000, 3001, 3100, 3101, 3200
 3201, 3300, 3301, 3400, 3401, 3500, 3501, 3600, 3601, 3700, 3701, 3800, 3801, 3900, 3901, 4000
 4001, 4100, 4101, 4200, 4201, 4300, 4301, 4400, 4401, 4500, 4501, 4600, 4601, 4700, 4701, 4800
 4801, 4900, 4901, 5000, 5001, 5100, 5101, 5200, 5201, 5300, 5301, 5400, 5401, 5500, 5501, 5600
 5601, 5700, 5701, 5800, 5801, 5900, 5901, 6000
*Nset, nset=Set-2, instance=Part-1-1
   7,   8, 401, 402, 403, 404, 405, 406, 407, 408, 409, 410, 411, 412, 413, 414
 415, 416, 417, 418, 419, 420, 421, 422, 423, 424, 425, 426, 427, 428, 429, 430
 431, 432, 433, 434, 435, 436, 437, 438, 439, 440, 441, 442, 443, 444, 445, 446
 447, 448, 449, 450, 451, 452, 453, 454, 455, 456, 457, 458, 459, 460, 461, 462
 463, 464, 465, 466, 467, 468, 469, 470, 471, 472, 473, 474, 475, 476, 477, 478
 479, 480, 481, 482, 483, 484, 485, 486, 487, 488, 489, 490, 491, 492, 493, 494
 495, 496, 497, 498, 499
*Elset, elset=Set-2, instance=Part-1-1, generate
 5901,  6000,     1
*Nset, nset=Set-3, instance=Part-1-1
   5,   6, 264, 265, 266, 267, 268, 269, 270, 271, 272, 273, 274, 275, 276, 277
 278, 279, 280, 281, 282, 283, 284, 285, 286, 287, 288, 289, 290, 291, 292, 293
 294, 295, 296, 297, 298, 299, 300, 301, 302, 303, 304, 305, 306, 307, 308, 309
 310, 311, 312, 313, 314, 315, 316, 317, 318, 319, 320, 321, 322, 323, 324, 325
 326, 327, 328, 329, 330, 331, 332, 333, 334, 335, 336, 337, 338, 339, 340, 341
 342, 343, 344, 345, 346, 347, 348, 349, 350, 351, 352, 353, 354, 355, 356, 357
 358, 359, 360, 361, 362
*Elset, elset=Set-3, instance=Part-1-1, generate
 3901,  4000,     1
*Elset, elset=_Surf-1_E3, internal, instance=Part-1-1, generate
 3901,  4000,     1
*Surface, type=ELEMENT, name=Surf-1
_Surf-1_E3, E3
*Elset, elset=_Surf-2_SPOS, internal, instance=Part-1-1, generate
    1,  6000,     1
*Surface, type=ELEMENT, name=Surf-2
_Surf-2_SPOS, SPOS
*Nset, nset=_T-CylSYS, internal
Set-2, 
Set-3, 
Set-1, 
*Transform, nset=_T-CylSYS, type=C
          0.,           0.,           0.,           0.,           1.,           0.
*NSET, NSET=RIKS, INSTANCE=Part-1-1
6
*End Assembly
** 
** MATERIALS
** 
*Material, name=Material-1
*Elastic
200000., 0.3
** 
** BOUNDARY CONDITIONS
** 
** Name: BC1r Type: Displacement/Rotation
*Boundary
Set-2, 1, 1
Set-2, 2, 2
Set-2, 3, 3
Set-2, 5, 5
** Name: BC2f Type: Displacement/Rotation
*Boundary
Set-3, 1, 1
Set-3, 2, 2
** Name: Sym Type: Symmetry/Antisymmetry/Encastre
*Boundary
Set-1, YSYMM
** ----------------------------------------------------------------
** 
** STEP: GNA
** 
*Step, name=GNA, nlgeom=YES, inc=500
*Static, riks
0.05, 1., 1e-15, 0.05, ,
** 
** LOADS
** 
** Name: N   Type: Shell edge load
*Dsload
Surf-1, EDNOR, 121.
** 
** OUTPUT REQUESTS
** 
*Restart, write, frequency=0
** 
** FIELD OUTPUT: F-Output-1
** 
*Output, field, variable=PRESELECT
** 
** HISTORY OUTPUT: H-Output-1
** 
*Output, history
*NODE OUTPUT, NSET=RIKS
U2
*End Step